      -----------------------------------------------------------      
     |                   =====================                   |     
     |                           x T B                           |     
     |                   =====================                   |     
     |                         S. Grimme                         |     
     |          Mulliken Center for Theoretical Chemistry        |     
     |                    University of Bonn                     |     
      -----------------------------------------------------------      

   * xtb version 6.7.1 (edcfbbe) compiled by 'albert@albert-system' on 2024-07-22

   xtb is free software: you can redistribute it and/or modify it under
   the terms of the GNU Lesser General Public License as published by
   the Free Software Foundation, either version 3 of the License, or
   (at your option) any later version.
   
   xtb is distributed in the hope that it will be useful,
   but WITHOUT ANY WARRANTY; without even the implied warranty of
   MERCHANTABILITY or FITNESS FOR A PARTICULAR PURPOSE.  See the
   GNU Lesser General Public License for more details.
   
   Cite this work as:
   * C. Bannwarth, E. Caldeweyher, S. Ehlert, A. Hansen, P. Pracht,
     J. Seibert, S. Spicher, S. Grimme, WIREs Comput. Mol. Sci., 2020, 11,
     e01493. DOI: 10.1002/wcms.1493
   
   for GFN2-xTB:
   * C. Bannwarth, S. Ehlert and S. Grimme., J. Chem. Theory Comput., 2019,
     15, 1652-1671. DOI: 10.1021/acs.jctc.8b01176
   for GFN1-xTB:
   * S. Grimme, C. Bannwarth, P. Shushkov, J. Chem. Theory Comput., 2017,
     13, 1989-2009. DOI: 10.1021/acs.jctc.7b00118
   for GFN0-xTB:
   * P. Pracht, E. Caldeweyher, S. Ehlert, S. Grimme, ChemRxiv, 2019, preprint.
     DOI: 10.26434/chemrxiv.8326202.v1
   for GFN-FF:
   * S. Spicher and S. Grimme, Angew. Chem. Int. Ed., 2020, 59, 15665-15673.
     DOI: 10.1002/anie.202004239
   
   for ALPB and GBSA implicit solvation:
   * S. Ehlert, M. Stahn, S. Spicher, S. Grimme, J. Chem. Theory Comput.,
     2021, 17, 4250-4261. DOI: 10.1021/acs.jctc.1c00471
   
   for ddCOSMO and CPCM-X implicit solvation:
   * M. Stahn, S. Ehlert, S. Grimme, J. Phys. Chem. A,
     2023, XX, XXXX-XXXX. DOI: 10.1021/acs.jpca.3c04382
   
   for DFT-D4:
   * E. Caldeweyher, C. Bannwarth and S. Grimme, J. Chem. Phys., 2017,
     147, 034112. DOI: 10.1063/1.4993215
   * E. Caldeweyher, S. Ehlert, A. Hansen, H. Neugebauer, S. Spicher,
     C. Bannwarth and S. Grimme, J. Chem. Phys., 2019, 150, 154122.
     DOI: 10.1063/1.5090222
   * E. Caldeweyher, J.-M. Mewes, S. Ehlert and S. Grimme, Phys. Chem. Chem. Phys.
     2020, 22, 8499-8512. DOI: 10.1039/D0CP00502A
   
   for sTDA-xTB:
   * S. Grimme and C. Bannwarth, J. Chem. Phys., 2016, 145, 054103.
     DOI: 10.1063/1.4959605
   
   in the mass-spec context:
   * V. Asgeirsson, C. Bauer and S. Grimme, Chem. Sci., 2017, 8, 4879.
     DOI: 10.1039/c7sc00601b
   * J. Koopman and S. Grimme, ACS Omega 2019, 4, 12, 15120-15133.
     DOI: 10.1021/acsomega.9b02011
   
   for metadynamics refer to:
   * S. Grimme, J. Chem. Theory Comput., 2019, 155, 2847-2862
     DOI: 10.1021/acs.jctc.9b00143
   
   for SPH calculations refer to:
   * S. Spicher and S. Grimme, J. Chem. Theory Comput., 2021, 17, 1701-1714
     DOI: 10.1021/acs.jctc.0c01306
   
   for ONIOM refer to:
   * C. Plett, A. Katbashev, S. Ehlert, S. Grimme, M. Bursch,
     Phys. Chem. Chem. Phys., 2023, 25, 17860-17868. DOI: 10.1039/D3CP02178E
   
   for DIPRO refer to:
   * J. Kohn, N. Gildemeister, S. Grimme, D. Fazzi, A. Hansen,
     J. Chem. Phys., 2023, just accepted.
   
   for PTB refer to:
   * S. Grimme, M. Mueller, A. Hansen, J. Chem. Phys., 2023, 158, 124111.
     DOI: 10.1063/5.0137838
   
   with help from (in alphabetical order)
   P. Atkinson, C. Bannwarth, F. Bohle, G. Brandenburg, E. Caldeweyher
   M. Checinski, S. Dohm, S. Ehlert, S. Ehrlich, I. Gerasimov, C. Hölzer
   A. Katbashev, J. Kohn, J. Koopman, C. Lavigne, S. Lehtola, F. März, M. Müller,
   F. Musil, H. Neugebauer, J. Pisarek, C. Plett, P. Pracht, F. Pultar,
   J. Seibert, P. Shushkov, S. Spicher, M. Stahn, M. Steiner, T. Strunk,
   J. Stückrath, T. Rose, and J. Unsleber
   
 * started run on 2026/08/29 at 13:17:56.156     
   ID    Z sym.   atoms
    1    6 c      1-9
    2    1 h      10-21

           -------------------------------------------------
          |                Calculation Setup                |
           -------------------------------------------------

          program call               : xtb coord --gfn 2 --norestart
          coordinate file            : coord
          omp threads                :                     1


           -------------------------------------------------
          |                 G F N 2 - x T B                 |
           -------------------------------------------------

        Reference                      10.1021/acs.jctc.8b01176
      * Hamiltonian:
        H0-scaling (s, p, d)           1.850000    2.230000    2.230000
        zeta-weighting                 0.500000
      * Dispersion:
        s8                             2.700000
        a1                             0.520000
        a2                             5.000000
        s9                             5.000000
      * Repulsion:
        kExp                           1.500000    1.000000
        rExp                           1.000000
      * Coulomb:
        alpha                          2.000000
        third order                    shell-resolved
        anisotropic                    true
        a3                             3.000000
        a5                             4.000000
        cn-shift                       1.200000
        cn-exp                         4.000000
        max-rad                        5.000000


          ...................................................
          :                      SETUP                      :
          :.................................................:
          :  # basis functions                  48          :
          :  # atomic orbitals                  48          :
          :  # shells                           30          :
          :  # electrons                        48          :
          :  max. iterations                   250          :
          :  Hamiltonian                  GFN2-xTB          :
          :  restarted?                      false          :
          :  GBSA solvation                  false          :
          :  PC potential                    false          :
          :  electronic temp.          300.0000000     K    :
          :  accuracy                    1.0000000          :
          :  -> integral cutoff          0.2500000E+02      :
          :  -> integral neglect         0.1000000E-07      :
          :  -> SCF convergence          0.1000000E-05 Eh   :
          :  -> wf. convergence          0.1000000E-03 e    :
          :  Broyden damping             0.4000000          :
          :  net charge                          0          :
          :  unpaired electrons                  0          :
          ...................................................

 iter      E             dE          RMSdq      gap      omega  full diag
   1    -25.8028644 -0.258029E+02  0.353E+00    4.72       0.0  T
   2    -25.8367206 -0.338562E-01  0.205E+00    4.75       1.0  T
   3    -25.8372553 -0.534697E-03  0.689E-01    4.68       1.0  T
   4    -25.8374621 -0.206793E-03  0.261E-01    4.72       1.0  T
   5    -25.8382967 -0.834586E-03  0.590E-02    4.72       1.0  T
   6    -25.8383101 -0.134516E-04  0.283E-02    4.71       1.0  T
   7    -25.8383109 -0.795873E-06  0.975E-03    4.72       2.2  T
   8    -25.8383116 -0.701753E-06  0.174E-03    4.72      12.5  T
   9    -25.8383117 -0.370380E-07  0.719E-04    4.72      30.3  T
  10    -25.8383117  0.236895E-09  0.357E-04    4.72      61.2  T

   *** convergence criteria satisfied after 10 iterations ***

         #    Occupation            Energy/Eh            Energy/eV
      -------------------------------------------------------------
         1        2.0000           -0.6396339             -17.4053
       ...           ...                  ...                  ...
        18        2.0000           -0.4517186             -12.2919
        19        2.0000           -0.4406953             -11.9919
        20        2.0000           -0.4277592             -11.6399
        21        2.0000           -0.4158869             -11.3169
        22        2.0000           -0.4146703             -11.2838
        23        2.0000           -0.3981765             -10.8349
        24        2.0000           -0.3899894             -10.6122 (HOMO)
        25                         -0.2166693              -5.8959 (LUMO)
        26                         -0.2161733              -5.8824
        27                         -0.0880068              -2.3948
        28                          0.0887618               2.4153
        29                          0.1205253               3.2797
       ...                                ...                  ...
        48                          0.6701794              18.2365
      -------------------------------------------------------------
                  HL-Gap            0.1733201 Eh            4.7163 eV
             Fermi-level           -0.3033293 Eh           -8.2540 eV

 SCC (total)                   0 d,  0 h,  0 min,  0.014 sec
 SCC setup                      ...        0 min,  0.000 sec (  1.169%)
 Dispersion                     ...        0 min,  0.000 sec (  0.672%)
 classical contributions        ...        0 min,  0.000 sec (  0.152%)
 integral evaluation            ...        0 min,  0.001 sec (  7.572%)
 iterations                     ...        0 min,  0.010 sec ( 67.951%)
 molecular gradient             ...        0 min,  0.003 sec ( 21.207%)
 printout                       ...        0 min,  0.000 sec (  1.171%)

         :::::::::::::::::::::::::::::::::::::::::::::::::::::
         ::                     SUMMARY                     ::
         :::::::::::::::::::::::::::::::::::::::::::::::::::::
         :: total energy             -25.379686571129 Eh    ::
         :: gradient norm              0.000102803228 Eh/a0 ::
         :: HOMO-LUMO gap              4.716280566200 eV    ::
         ::.................................................::
         :: SCC energy               -25.838297944421 Eh    ::
         :: -> isotropic ES            0.002651377708 Eh    ::
         :: -> anisotropic ES          0.005422698472 Eh    ::
         :: -> anisotropic XC          0.017153460974 Eh    ::
         :: -> dispersion             -0.015640110554 Eh    ::
         :: repulsion energy           0.458611373292 Eh    ::
         :: add. restraining           0.000000000000 Eh    ::
         :: total charge               0.000000000000 e     ::
         :::::::::::::::::::::::::::::::::::::::::::::::::::::

           -------------------------------------------------
          |                Property Printout                |
           -------------------------------------------------

    * Orbital Energies and Occupations

         #    Occupation            Energy/Eh            Energy/eV
      -------------------------------------------------------------
         1        2.0000           -0.6396339             -17.4053
       ...           ...                  ...                  ...
        12        2.0000           -0.4907873             -13.3550
        13        2.0000           -0.4885357             -13.2937
        14        2.0000           -0.4811980             -13.0941
        15        2.0000           -0.4724528             -12.8561
        16        2.0000           -0.4650265             -12.6540
        17        2.0000           -0.4548957             -12.3783
        18        2.0000           -0.4517186             -12.2919
        19        2.0000           -0.4406953             -11.9919
        20        2.0000           -0.4277592             -11.6399
        21        2.0000           -0.4158869             -11.3169
        22        2.0000           -0.4146703             -11.2838
        23        2.0000           -0.3981765             -10.8349
        24        2.0000           -0.3899894             -10.6122 (HOMO)
        25                         -0.2166693              -5.8959 (LUMO)
        26                         -0.2161733              -5.8824
        27                         -0.0880068              -2.3948
        28                          0.0887618               2.4153
        29                          0.1205253               3.2797
        30                          0.1298342               3.5330
        31                          0.1335052               3.6329
        32                          0.1411177               3.8400
        33                          0.1610631               4.3828
        34                          0.1734586               4.7200
        35                          0.1742458               4.7415
       ...                                ...                  ...
        48                          0.6701794              18.2365
      -------------------------------------------------------------
                  HL-Gap            0.1733201 Eh            4.7163 eV
             Fermi-level           -0.3033293 Eh           -8.2540 eV

     #   Z          covCN         q      C6AA      α(0)
     1   6 c        3.752    -0.102    22.507     6.765
     2   6 c        3.802    -0.047    21.422     6.589
     3   6 c        3.809    -0.064    21.714     6.633
     4   6 c        2.971     0.013    27.730     8.638
     5   6 c        2.925    -0.038    28.950     8.824
     6   6 c        2.919    -0.031    28.774     8.796
     7   6 c        2.920    -0.034    28.843     8.807
     8   6 c        2.919    -0.031    28.774     8.796
     9   6 c        2.925    -0.038    28.950     8.824
    10   1 h        0.925     0.034     2.526     2.485
    11   1 h        0.925     0.034     2.526     2.485
    12   1 h        0.925     0.034     2.529     2.487
    13   1 h        0.924     0.030     2.580     2.512
    14   1 h        0.924     0.030     2.580     2.512
    15   1 h        0.924     0.036     2.502     2.474
    16   1 h        0.924     0.036     2.502     2.474
    17   1 h        0.926     0.028     2.619     2.531
    18   1 h        0.926     0.027     2.626     2.534
    19   1 h        0.926     0.027     2.632     2.537
    20   1 h        0.926     0.027     2.626     2.534
    21   1 h        0.926     0.028     2.619     2.531

 Mol. C6AA /au·bohr⁶  :       4267.608883
 Mol. C8AA /au·bohr⁸  :      99081.060433
 Mol. α(0) /au        :        102.767372


Wiberg/Mayer (AO) data.
largest (>0.10) Wiberg bond orders for each atom

 ---------------------------------------------------------------------------
     #   Z sym  total        # sym  WBO       # sym  WBO       # sym  WBO
 ---------------------------------------------------------------------------
     1   6 c    3.996 --     2 c    1.019    10 h    0.988    11 h    0.988
                            12 h    0.987
     2   6 c    3.997 --     1 c    1.019     3 c    0.989    13 h    0.979
                            14 h    0.979
     3   6 c    3.997 --     4 c    1.013     2 c    0.989    16 h    0.973
                            15 h    0.973
     4   6 c    3.989 --     9 c    1.412     5 c    1.412     3 c    1.013
                             7 c    0.110
     5   6 c    3.992 --     6 c    1.446     4 c    1.412    17 h    0.970
                             8 c    0.111
     6   6 c    3.993 --     5 c    1.446     7 c    1.438    18 h    0.971
                             9 c    0.111
     7   6 c    3.992 --     8 c    1.438     6 c    1.438    19 h    0.972
                             4 c    0.110
     8   6 c    3.993 --     9 c    1.446     7 c    1.438    20 h    0.971
                             5 c    0.111
     9   6 c    3.992 --     8 c    1.446     4 c    1.412    21 h    0.970
                             6 c    0.111
    10   1 h    0.999 --     1 c    0.988
    11   1 h    0.999 --     1 c    0.988
    12   1 h    0.998 --     1 c    0.987
    13   1 h    0.999 --     2 c    0.979
    14   1 h    0.999 --     2 c    0.979
    15   1 h    0.998 --     3 c    0.973
    16   1 h    0.998 --     3 c    0.973
    17   1 h    0.999 --     5 c    0.970
    18   1 h    0.999 --     6 c    0.971
    19   1 h    0.999 --     7 c    0.972
    20   1 h    0.999 --     8 c    0.971
    21   1 h    0.999 --     9 c    0.970
 ---------------------------------------------------------------------------

Topologies differ in total number of bonds
Writing topology from bond orders to xtbtopo.mol

molecular dipole:
                 x           y           z       tot (Debye)
 q only:        0.205       0.018       0.019
   full:        0.203       0.014       0.010       0.518
molecular quadrupole (traceless):
                xx          xy          yy          xz          yz          zz
 q only:        0.505       0.199       0.179       0.424      -0.463      -0.684
  q+dip:        0.779       0.748       2.245       1.935      -2.880      -3.024
   full:        0.349       0.361       1.080       0.935      -1.370      -1.429


           -------------------------------------------------
          | TOTAL ENERGY              -25.379686571129 Eh   |
          | GRADIENT NORM               0.000102803228 Eh/α |
          | HOMO-LUMO GAP               4.716280566200 eV   |
           -------------------------------------------------

------------------------------------------------------------------------
 * finished run on 2026/08/29 at 13:17:56.179     
------------------------------------------------------------------------
 total:
 * wall-time:     0 d,  0 h,  0 min,  0.022 sec
 *  cpu-time:     0 d,  0 h,  0 min,  0.022 sec
 * ratio c/w:     0.977 speedup
 SCF:
 * wall-time:     0 d,  0 h,  0 min,  0.015 sec
 *  cpu-time:     0 d,  0 h,  0 min,  0.014 sec
 * ratio c/w:     0.972 speedup

