21
RDKit ETKDGv3/MMFF94s selected conformer
C   3.324879604875  0.087344925564 -0.158923519445
C   1.854846621367 -0.129503805653 -0.480942174891
C   0.956941168546  0.346511816617  0.661548010325
C  -0.503076499688  0.134221061967  0.348535874168
C  -1.134863724466 -1.069665009243  0.687520073167
C  -2.481962792014 -1.271670160611  0.382885228392
C  -3.207965813459 -0.275186828470 -0.266823990799
C  -2.587299117893  0.923211146504 -0.614382336864
C  -1.240284192476  1.126968121642 -0.310543488519
H   3.537823721678  1.148319972702  0.006319707588
H   3.615296633072 -0.466096600671  0.739785201062
H   3.949657162302 -0.259344600860 -0.988002275255
H   1.606878334513  0.406730137103 -1.405051813319
H   1.683733530855 -1.194948090781 -0.677316490403
H   1.211046590944 -0.183059482185  1.588611582259
H   1.134578268372  1.410307743191  0.864637767983
H  -0.579651480144 -1.857915602838  1.190673424227
H  -2.964309295710 -2.207731927263  0.651395534870
H  -4.256505729132 -0.433333077228 -0.504134837333
H  -3.151826618051  1.699523944800 -1.123905336265
H  -0.767936373494  2.065316315712 -0.591886140947
