21
 energy: -25.379686573023 gnorm: 0.000102398883 xtb: 6.7.1 (edcfbbe)
C            3.31064225856094        0.07949604313730       -0.17470647783375
C            1.83120361386207       -0.12681437741125       -0.47252564689173
C            0.94774249016288        0.35620146934381        0.68385991202066
C           -0.50430562433480        0.14283450881286        0.36762862532731
C           -1.13158822529482       -1.05311347398772        0.69273842774079
C           -2.45988065534689       -1.26568282525927        0.36976917454673
C           -3.18040977514243       -0.28315932744197       -0.28728501778100
C           -2.56434959211483        0.91118667921824       -0.61931261525135
C           -1.23589200932907        1.12031484710601       -0.29477981963013
H            3.52420902192067        1.13372419296434       -0.01076553770524
H            3.60118572160285       -0.47040470527723        0.71808581531494
H            3.92001086575737       -0.26874635521866       -1.00551075508575
H            1.55943410264671        0.41664812433758       -1.38029727185440
H            1.63636978631549       -1.18659794961110       -0.65185235031189
H            1.21586744071206       -0.19204105705460        1.58971755369780
H            1.13863028355819        1.41738731990201        0.85846052062154
H           -0.57414388956267       -1.82298479881936        1.20790027538128
H           -2.93491932098544       -2.19992726868502        0.63270349771467
H           -4.21826796812360       -0.44685563317356       -0.53794328819561
H           -3.12124835078763        1.68270008853964       -1.13140606945677
H           -0.76029017408001        2.05583449857690       -0.55447895236717
