62
RDKit ETKDGv3/MMFF94s selected conformer
C   5.521253485997 -2.284017755684  0.472812714612
C   5.313713261516 -0.799734594326  0.874031487757
C   5.479409724656 -0.747205340539  2.415759199777
C   6.381310904677  0.157016413529  0.289324060479
C   6.236278699457  1.549635943689  0.460328210294
C   7.179811243833  2.446749264343 -0.045121388326
C   8.292986980953  1.972349221303 -0.730267623770
C   8.461156771148  0.602458942209 -0.908772531456
C   7.516354349768 -0.296897097694 -0.403672060646
C   3.895787473954 -0.413748721493  0.388830989411
C   3.641923019603 -0.280030755657 -0.988863165030
C   2.371181411193  0.061935308264 -1.465920147690
C   1.305163858241  0.282538688059 -0.588681734707
N   0.039883316751  0.590586883290 -1.115275631440
C  -1.259637325693  0.391220779991 -0.620677723689
C  -1.580278296734 -0.605728453133  0.302612464257
C  -2.884809584894 -0.752400846982  0.796033584494
C  -3.916676867354  0.102872462506  0.383643711285
C  -5.368390045249 -0.012285014739  0.907275442248
C  -5.615285730463 -1.267388342261  1.785279513637
C  -5.593373794109  1.209612169142  1.836518765636
C  -6.377250524274 -0.096058391138 -0.264135222720
C  -6.204633148675 -1.077438786466 -1.262511912161
C  -7.095505312783 -1.191629073259 -2.332022737195
C  -8.182541080615 -0.329616576618 -2.426513964105
C  -8.377255102747  0.644617026320 -1.451990538984
C  -7.485153572913  0.760409348665 -0.380838816972
C  -3.585652772583  1.112393352875 -0.539209383417
C  -2.282452382320  1.251637641654 -1.030725929092
C   1.548972794125  0.141134474150  0.778705414995
C   2.820741268505 -0.197902283707  1.262897052298
H   6.469854583997 -2.678374432820  0.856399676991
H   4.723126755565 -2.918196721691  0.879178734096
H   5.520926988646 -2.424324140860 -0.614681296618
H   6.507497091700 -0.992559370836  2.710917217749
H   4.821784543947 -1.466467413548  2.918466233000
H   5.255852248761  0.245551046188  2.824109965628
H   5.371858561603  1.949446332978  0.988148881149
H   7.041184264604  3.515210886595  0.096732500726
H   9.028255071800  2.668395428213 -1.124319930033
H   9.331417182742  0.228966455388 -1.442524441604
H   7.695004847304 -1.355856878361 -0.566534023068
H   4.440864587608 -0.437866123408 -1.711487013605
H   2.222696104142  0.143764916397 -2.539569750217
H   0.070300185302  1.041341002478 -2.022336150748
H  -0.821530033239 -1.311532504699  0.630319705895
H  -3.062176814976 -1.555601148149  1.505436179819
H  -5.387706552965 -2.198400572995  1.252626795101
H  -5.004984619075 -1.250798737078  2.696202325246
H  -6.663911784753 -1.326643575406  2.103330083166
H  -6.571330273754  1.167827705139  2.330843983601
H  -4.835322355911  1.247788185915  2.629126507113
H  -5.538363098038  2.160430149507  1.293146998363
H  -5.359457830024 -1.762453166383 -1.216696225560
H  -6.936331294741 -1.953789779986 -3.090128454515
H  -8.876845561992 -0.416629288952 -3.257625572886
H  -9.227254647808  1.318598462264 -1.522637697768
H  -7.682908818222  1.534618679588  0.354910789861
H  -4.348509198964  1.804620286517 -0.891737253841
H  -2.074337412438  2.053216491146 -1.734733912314
H   0.755107782555  0.326849650277  1.497410960687
H   2.938206473653 -0.282217709715  2.339435585307
