      -----------------------------------------------------------      
     |                   =====================                   |     
     |                           x T B                           |     
     |                   =====================                   |     
     |                         S. Grimme                         |     
     |          Mulliken Center for Theoretical Chemistry        |     
     |                    University of Bonn                     |     
      -----------------------------------------------------------      

   * xtb version 6.7.1 (edcfbbe) compiled by 'albert@albert-system' on 2024-07-22

   xtb is free software: you can redistribute it and/or modify it under
   the terms of the GNU Lesser General Public License as published by
   the Free Software Foundation, either version 3 of the License, or
   (at your option) any later version.
   
   xtb is distributed in the hope that it will be useful,
   but WITHOUT ANY WARRANTY; without even the implied warranty of
   MERCHANTABILITY or FITNESS FOR A PARTICULAR PURPOSE.  See the
   GNU Lesser General Public License for more details.
   
   Cite this work as:
   * C. Bannwarth, E. Caldeweyher, S. Ehlert, A. Hansen, P. Pracht,
     J. Seibert, S. Spicher, S. Grimme, WIREs Comput. Mol. Sci., 2020, 11,
     e01493. DOI: 10.1002/wcms.1493
   
   for GFN2-xTB:
   * C. Bannwarth, S. Ehlert and S. Grimme., J. Chem. Theory Comput., 2019,
     15, 1652-1671. DOI: 10.1021/acs.jctc.8b01176
   for GFN1-xTB:
   * S. Grimme, C. Bannwarth, P. Shushkov, J. Chem. Theory Comput., 2017,
     13, 1989-2009. DOI: 10.1021/acs.jctc.7b00118
   for GFN0-xTB:
   * P. Pracht, E. Caldeweyher, S. Ehlert, S. Grimme, ChemRxiv, 2019, preprint.
     DOI: 10.26434/chemrxiv.8326202.v1
   for GFN-FF:
   * S. Spicher and S. Grimme, Angew. Chem. Int. Ed., 2020, 59, 15665-15673.
     DOI: 10.1002/anie.202004239
   
   for ALPB and GBSA implicit solvation:
   * S. Ehlert, M. Stahn, S. Spicher, S. Grimme, J. Chem. Theory Comput.,
     2021, 17, 4250-4261. DOI: 10.1021/acs.jctc.1c00471
   
   for ddCOSMO and CPCM-X implicit solvation:
   * M. Stahn, S. Ehlert, S. Grimme, J. Phys. Chem. A,
     2023, XX, XXXX-XXXX. DOI: 10.1021/acs.jpca.3c04382
   
   for DFT-D4:
   * E. Caldeweyher, C. Bannwarth and S. Grimme, J. Chem. Phys., 2017,
     147, 034112. DOI: 10.1063/1.4993215
   * E. Caldeweyher, S. Ehlert, A. Hansen, H. Neugebauer, S. Spicher,
     C. Bannwarth and S. Grimme, J. Chem. Phys., 2019, 150, 154122.
     DOI: 10.1063/1.5090222
   * E. Caldeweyher, J.-M. Mewes, S. Ehlert and S. Grimme, Phys. Chem. Chem. Phys.
     2020, 22, 8499-8512. DOI: 10.1039/D0CP00502A
   
   for sTDA-xTB:
   * S. Grimme and C. Bannwarth, J. Chem. Phys., 2016, 145, 054103.
     DOI: 10.1063/1.4959605
   
   in the mass-spec context:
   * V. Asgeirsson, C. Bauer and S. Grimme, Chem. Sci., 2017, 8, 4879.
     DOI: 10.1039/c7sc00601b
   * J. Koopman and S. Grimme, ACS Omega 2019, 4, 12, 15120-15133.
     DOI: 10.1021/acsomega.9b02011
   
   for metadynamics refer to:
   * S. Grimme, J. Chem. Theory Comput., 2019, 155, 2847-2862
     DOI: 10.1021/acs.jctc.9b00143
   
   for SPH calculations refer to:
   * S. Spicher and S. Grimme, J. Chem. Theory Comput., 2021, 17, 1701-1714
     DOI: 10.1021/acs.jctc.0c01306
   
   for ONIOM refer to:
   * C. Plett, A. Katbashev, S. Ehlert, S. Grimme, M. Bursch,
     Phys. Chem. Chem. Phys., 2023, 25, 17860-17868. DOI: 10.1039/D3CP02178E
   
   for DIPRO refer to:
   * J. Kohn, N. Gildemeister, S. Grimme, D. Fazzi, A. Hansen,
     J. Chem. Phys., 2023, just accepted.
   
   for PTB refer to:
   * S. Grimme, M. Mueller, A. Hansen, J. Chem. Phys., 2023, 158, 124111.
     DOI: 10.1063/5.0137838
   
   with help from (in alphabetical order)
   P. Atkinson, C. Bannwarth, F. Bohle, G. Brandenburg, E. Caldeweyher
   M. Checinski, S. Dohm, S. Ehlert, S. Ehrlich, I. Gerasimov, C. Hölzer
   A. Katbashev, J. Kohn, J. Koopman, C. Lavigne, S. Lehtola, F. März, M. Müller,
   F. Musil, H. Neugebauer, J. Pisarek, C. Plett, P. Pracht, F. Pultar,
   J. Seibert, P. Shushkov, S. Spicher, M. Stahn, M. Steiner, T. Strunk,
   J. Stückrath, T. Rose, and J. Unsleber
   
 * started run on 2026/08/29 at 13:18:00.845     
   ID    Z sym.   atoms
    1    6 c      1-13, 15-31
    2    7 n      14
    3    1 h      32-62

           -------------------------------------------------
          |                Calculation Setup                |
           -------------------------------------------------

          program call               : xtb coord --gfn 2 --cosmo inf --norestart
          coordinate file            : coord
          omp threads                :                     1


           -------------------------------------------------
          |                 G F N 2 - x T B                 |
           -------------------------------------------------

        Reference                      10.1021/acs.jctc.8b01176
      * Hamiltonian:
        H0-scaling (s, p, d)           1.850000    2.230000    2.230000
        zeta-weighting                 0.500000
      * Dispersion:
        s8                             2.700000
        a1                             0.520000
        a2                             5.000000
        s9                             5.000000
      * Repulsion:
        kExp                           1.500000    1.000000
        rExp                           1.000000
      * Coulomb:
        alpha                          2.000000
        third order                    shell-resolved
        anisotropic                    true
        a3                             3.000000
        a5                             4.000000
        cn-shift                       1.200000
        cn-exp                         4.000000
        max-rad                        5.000000

      * Solvation model:               COSMO
        Solvent                        inf
        Parameter file                 internal GFN-xTB/COSMO
        Dielectric constant                  Infinity
        Reference state                gsolv [1 M gas/solution]
        Free energy shift                  0.0000E+00 Eh       0.0000E+00 kcal/mol
        Temperature                        2.9815E+02 K
        Density                            1.0000E+00 kg/L
        Solvent mass                       1.8000E+01 g/mol
        vdW Radii scaling                  1.0000E+00
        Surface tension                    1.0000E-05 Eh       1.5569E+01 dyn/cm
        Grid points                               230 per atom

          ...................................................
          :                      SETUP                      :
          :.................................................:
          :  # basis functions                 155          :
          :  # atomic orbitals                 155          :
          :  # shells                           93          :
          :  # electrons                       156          :
          :  max. iterations                   250          :
          :  Hamiltonian                  GFN2-xTB          :
          :  restarted?                      false          :
          :  GBSA solvation                   true          :
          :  PC potential                    false          :
          :  electronic temp.          300.0000000     K    :
          :  accuracy                    1.0000000          :
          :  -> integral cutoff          0.2500000E+02      :
          :  -> integral neglect         0.1000000E-07      :
          :  -> SCF convergence          0.1000000E-05 Eh   :
          :  -> wf. convergence          0.1000000E-03 e    :
          :  Broyden damping             0.4000000          :
          :  net charge                          0          :
          :  unpaired electrons                  0          :
          ...................................................

 iter      E             dE          RMSdq      gap      omega  full diag
   1    -84.4520171 -0.844520E+02  0.359E+00    3.04       0.0  T
   2    -84.4971960 -0.451789E-01  0.215E+00    3.31       1.0  T
   3    -84.4900750  0.712104E-02  0.696E-01    3.33       1.0  T
   4    -84.4988905 -0.881547E-02  0.239E-01    3.32       1.0  T
   5    -84.5010182 -0.212771E-02  0.622E-02    3.34       1.0  T
   6    -84.5011731 -0.154931E-03  0.260E-02    3.34       1.0  T
   7    -84.5011566  0.165145E-04  0.133E-02    3.33       1.0  T
   8    -84.5011483  0.831749E-05  0.278E-03    3.34       4.6  T
   9    -84.5011429  0.533779E-05  0.139E-03    3.34       9.1  T
  10    -84.5011441 -0.121120E-05  0.785E-04    3.34      16.2  T
  11    -84.5011433  0.814901E-06  0.348E-04    3.34      36.5  T
  12    -84.5011433  0.249226E-07  0.145E-04    3.34      87.5  T

   *** convergence criteria satisfied after 12 iterations ***

         #    Occupation            Energy/Eh            Energy/eV
      -------------------------------------------------------------
         1        2.0000           -0.6510153             -17.7150
       ...           ...                  ...                  ...
        72        2.0000           -0.3986735             -10.8485
        73        2.0000           -0.3965107             -10.7896
        74        2.0000           -0.3953087             -10.7569
        75        2.0000           -0.3927212             -10.6865
        76        2.0000           -0.3900763             -10.6145
        77        2.0000           -0.3854503             -10.4886
        78        2.0000           -0.3429894              -9.3332 (HOMO)
        79                         -0.2204055              -5.9975 (LUMO)
        80                         -0.2177529              -5.9254
        81                         -0.2176477              -5.9225
        82                         -0.2171369              -5.9086
        83                         -0.2163185              -5.8863
       ...                                ...                  ...
       155                          0.6895222              18.7629
      -------------------------------------------------------------
                  HL-Gap            0.1225839 Eh            3.3357 eV
             Fermi-level           -0.2816975 Eh           -7.6654 eV

 SCC (total)                   0 d,  0 h,  0 min,  0.789 sec
 SCC setup                      ...        0 min,  0.003 sec (  0.403%)
 Dispersion                     ...        0 min,  0.001 sec (  0.079%)
 classical contributions        ...        0 min,  0.000 sec (  0.015%)
 integral evaluation            ...        0 min,  0.007 sec (  0.851%)
 iterations                     ...        0 min,  0.713 sec ( 90.363%)
 molecular gradient             ...        0 min,  0.058 sec (  7.307%)
 printout                       ...        0 min,  0.008 sec (  0.978%)

         :::::::::::::::::::::::::::::::::::::::::::::::::::::
         ::                     SUMMARY                     ::
         :::::::::::::::::::::::::::::::::::::::::::::::::::::
         :: total energy             -82.981123289762 Eh    ::
         :: total w/o Gsasa/hb       -82.970040598780 Eh    ::
         :: gradient norm              0.002975804985 Eh/a0 ::
         :: HOMO-LUMO gap              3.335676559565 eV    ::
         ::.................................................::
         :: SCC energy               -84.500950532204 Eh    ::
         :: -> isotropic ES            0.012982240805 Eh    ::
         :: -> anisotropic ES          0.015665999013 Eh    ::
         :: -> anisotropic XC          0.051258131667 Eh    ::
         :: -> dispersion             -0.073122140807 Eh    ::
         :: -> Gsolv                  -0.013255107668 Eh    ::
         ::    -> Gelec               -0.002172416686 Eh    ::
         ::    -> Gsasa               -0.011082690982 Eh    ::
         ::    -> Ghb                  0.000000000000 Eh    ::
         ::    -> Gshift               0.000000000000 Eh    ::
         :: repulsion energy           1.519827242442 Eh    ::
         :: add. restraining           0.000000000000 Eh    ::
         :: total charge              -0.000000000000 e     ::
         :::::::::::::::::::::::::::::::::::::::::::::::::::::

           -------------------------------------------------
          |                Property Printout                |
           -------------------------------------------------

    * Orbital Energies and Occupations

         #    Occupation            Energy/Eh            Energy/eV
      -------------------------------------------------------------
         1        2.0000           -0.6510153             -17.7150
       ...           ...                  ...                  ...
        66        2.0000           -0.4167477             -11.3403
        67        2.0000           -0.4148477             -11.2886
        68        2.0000           -0.4103534             -11.1663
        69        2.0000           -0.4067523             -11.0683
        70        2.0000           -0.4033340             -10.9753
        71        2.0000           -0.3990075             -10.8575
        72        2.0000           -0.3986735             -10.8485
        73        2.0000           -0.3965107             -10.7896
        74        2.0000           -0.3953087             -10.7569
        75        2.0000           -0.3927212             -10.6865
        76        2.0000           -0.3900763             -10.6145
        77        2.0000           -0.3854503             -10.4886
        78        2.0000           -0.3429894              -9.3332 (HOMO)
        79                         -0.2204055              -5.9975 (LUMO)
        80                         -0.2177529              -5.9254
        81                         -0.2176477              -5.9225
        82                         -0.2171369              -5.9086
        83                         -0.2163185              -5.8863
        84                         -0.2125298              -5.7832
        85                         -0.2120972              -5.7715
        86                         -0.1882978              -5.1238
        87                         -0.0895579              -2.4370
        88                         -0.0882712              -2.4020
        89                         -0.0882624              -2.4017
       ...                                ...                  ...
       155                          0.6895222              18.7629
      -------------------------------------------------------------
                  HL-Gap            0.1225839 Eh            3.3357 eV
             Fermi-level           -0.2816975 Eh           -7.6654 eV

     #   Z          covCN         q      C6AA      α(0)
     1   6 c        3.762    -0.103    22.513     6.764
     2   6 c        3.909     0.017    20.234     6.394
     3   6 c        3.763    -0.103    22.503     6.762
     4   6 c        2.980     0.010    27.779     8.645
     5   6 c        2.927    -0.037    28.916     8.819
     6   6 c        2.919    -0.034    28.854     8.809
     7   6 c        2.920    -0.037    28.918     8.818
     8   6 c        2.920    -0.035    28.869     8.811
     9   6 c        2.924    -0.041    29.031     8.836
    10   6 c        2.979    -0.004    28.123     8.699
    11   6 c        2.926    -0.037    28.932     8.821
    12   6 c        2.925    -0.063    29.572     8.918
    13   6 c        2.903     0.066    26.531     8.446
    14   7 n        2.699    -0.159    24.433     7.341
    15   6 c        2.903     0.066    26.532     8.446
    16   6 c        2.921    -0.060    29.485     8.905
    17   6 c        2.924    -0.043    29.068     8.841
    18   6 c        2.979    -0.004    28.123     8.699
    19   6 c        3.909     0.017    20.233     6.394
    20   6 c        3.763    -0.103    22.503     6.762
    21   6 c        3.762    -0.103    22.513     6.763
    22   6 c        2.980     0.010    27.780     8.646
    23   6 c        2.927    -0.037    28.916     8.819
    24   6 c        2.919    -0.034    28.854     8.809
    25   6 c        2.920    -0.037    28.918     8.818
    26   6 c        2.920    -0.035    28.868     8.811
    27   6 c        2.924    -0.041    29.030     8.836
    28   6 c        2.926    -0.037    28.931     8.821
    29   6 c        2.925    -0.063    29.572     8.918
    30   6 c        2.921    -0.060    29.486     8.905
    31   6 c        2.924    -0.043    29.070     8.842
    32   1 h        0.925     0.042     2.423     2.434
    33   1 h        0.925     0.036     2.506     2.476
    34   1 h        0.925     0.037     2.489     2.467
    35   1 h        0.925     0.035     2.513     2.479
    36   1 h        0.925     0.043     2.406     2.426
    37   1 h        0.925     0.037     2.488     2.466
    38   1 h        0.926     0.026     2.648     2.545
    39   1 h        0.926     0.026     2.640     2.541
    40   1 h        0.926     0.026     2.640     2.541
    41   1 h        0.926     0.028     2.617     2.530
    42   1 h        0.926     0.039     2.468     2.457
    43   1 h        0.926     0.023     2.695     2.567
    44   1 h        0.925     0.028     2.614     2.528
    45   1 h        0.860     0.179     1.218     1.728
    46   1 h        0.926     0.033     2.548     2.496
    47   1 h        0.926     0.036     2.497     2.471
    48   1 h        0.925     0.037     2.488     2.466
    49   1 h        0.925     0.043     2.406     2.426
    50   1 h        0.925     0.035     2.513     2.479
    51   1 h        0.925     0.042     2.423     2.434
    52   1 h        0.925     0.036     2.506     2.476
    53   1 h        0.925     0.037     2.489     2.467
    54   1 h        0.926     0.026     2.649     2.545
    55   1 h        0.926     0.026     2.641     2.541
    56   1 h        0.926     0.026     2.640     2.541
    57   1 h        0.926     0.028     2.617     2.530
    58   1 h        0.926     0.039     2.468     2.457
    59   1 h        0.926     0.023     2.695     2.567
    60   1 h        0.925     0.028     2.617     2.530
    61   1 h        0.926     0.033     2.548     2.496
    62   1 h        0.926     0.036     2.497     2.471

 Mol. C6AA /au·bohr⁶  :      44180.191521
 Mol. C8AA /au·bohr⁸  :    1069214.487447
 Mol. α(0) /au        :        334.493455


Wiberg/Mayer (AO) data.
largest (>0.10) Wiberg bond orders for each atom

 ---------------------------------------------------------------------------
     #   Z sym  total        # sym  WBO       # sym  WBO       # sym  WBO
 ---------------------------------------------------------------------------
     1   6 c    3.994 --    33 h    0.985     2 c    0.985    34 h    0.985
                            32 h    0.982
     2   6 c    3.991 --     1 c    0.985     3 c    0.984     4 c    0.978
                            10 c    0.977
     3   6 c    3.996 --    35 h    0.985    37 h    0.985     2 c    0.984
                            36 h    0.982
     4   6 c    3.986 --     9 c    1.422     5 c    1.402     2 c    0.978
                             7 c    0.110
     5   6 c    3.992 --     6 c    1.455     4 c    1.402    38 h    0.968
                             8 c    0.112
     6   6 c    3.992 --     5 c    1.455     7 c    1.430    39 h    0.971
                             9 c    0.109
     7   6 c    3.991 --     8 c    1.446     6 c    1.430    40 h    0.972
                             4 c    0.110
     8   6 c    3.992 --     7 c    1.446     9 c    1.436    41 h    0.971
                             5 c    0.112
     9   6 c    3.991 --     8 c    1.436     4 c    1.422    42 h    0.966
                             6 c    0.109
    10   6 c    3.973 --    31 c    1.413    11 c    1.388     2 c    0.977
    11   6 c    3.991 --    12 c    1.476    10 c    1.388    43 h    0.968
                            30 c    0.103
    12   6 c    3.982 --    11 c    1.476    13 c    1.340    44 h    0.968
                            31 c    0.101
    13   6 c    3.968 --    30 c    1.358    12 c    1.340    14 n    1.119
    14   7 n    3.437 --    15 c    1.119    13 c    1.119    45 h    0.932
    15   6 c    3.968 --    16 c    1.358    29 c    1.340    14 n    1.119
    16   6 c    3.982 --    17 c    1.450    15 c    1.358    46 h    0.966
                            28 c    0.103
    17   6 c    3.990 --    16 c    1.450    18 c    1.413    47 h    0.966
                            29 c    0.101
    18   6 c    3.973 --    17 c    1.413    28 c    1.388    19 c    0.977
    19   6 c    3.991 --    21 c    0.985    20 c    0.984    22 c    0.978
                            18 c    0.977
    20   6 c    3.996 --    50 h    0.985    48 h    0.985    19 c    0.984
                            49 h    0.982
    21   6 c    3.994 --    52 h    0.985    19 c    0.985    53 h    0.985
                            51 h    0.982
    22   6 c    3.986 --    27 c    1.422    23 c    1.402    19 c    0.978
                            25 c    0.110
    23   6 c    3.992 --    24 c    1.455    22 c    1.402    54 h    0.968
                            26 c    0.112
    24   6 c    3.992 --    23 c    1.455    25 c    1.430    55 h    0.971
                            27 c    0.109
    25   6 c    3.991 --    26 c    1.446    24 c    1.430    56 h    0.972
                            22 c    0.110
    26   6 c    3.992 --    25 c    1.446    27 c    1.436    57 h    0.971
                            23 c    0.112
    27   6 c    3.991 --    26 c    1.436    22 c    1.422    58 h    0.966
                            24 c    0.109
    28   6 c    3.991 --    29 c    1.476    18 c    1.388    59 h    0.968
                            16 c    0.103
    29   6 c    3.982 --    28 c    1.476    15 c    1.340    60 h    0.968
                            17 c    0.101
    30   6 c    3.982 --    31 c    1.450    13 c    1.358    61 h    0.966
                            11 c    0.103
    31   6 c    3.990 --    30 c    1.450    10 c    1.413    62 h    0.966
                            12 c    0.101
    32   1 h    0.997 --     1 c    0.982
    33   1 h    0.998 --     1 c    0.985
    34   1 h    0.999 --     1 c    0.985
    35   1 h    0.998 --     3 c    0.985
    36   1 h    0.997 --     3 c    0.982
    37   1 h    0.999 --     3 c    0.985
    38   1 h    0.999 --     5 c    0.968
    39   1 h    0.999 --     6 c    0.971
    40   1 h    0.999 --     7 c    0.972
    41   1 h    0.999 --     8 c    0.971
    42   1 h    0.998 --     9 c    0.966
    43   1 h    0.999 --    11 c    0.968
    44   1 h    0.999 --    12 c    0.968
    45   1 h    0.967 --    14 n    0.932
    46   1 h    0.999 --    16 c    0.966
    47   1 h    0.998 --    17 c    0.966
    48   1 h    0.999 --    20 c    0.985
    49   1 h    0.997 --    20 c    0.982
    50   1 h    0.998 --    20 c    0.985
    51   1 h    0.997 --    21 c    0.982
    52   1 h    0.998 --    21 c    0.985
    53   1 h    0.999 --    21 c    0.985
    54   1 h    0.999 --    23 c    0.968
    55   1 h    0.999 --    24 c    0.971
    56   1 h    0.999 --    25 c    0.972
    57   1 h    0.999 --    26 c    0.971
    58   1 h    0.998 --    27 c    0.966
    59   1 h    0.999 --    28 c    0.968
    60   1 h    0.999 --    29 c    0.968
    61   1 h    0.999 --    30 c    0.966
    62   1 h    0.998 --    31 c    0.966
 ---------------------------------------------------------------------------

Topologies differ in total number of bonds
Writing topology from bond orders to xtbtopo.mol

molecular dipole:
                 x           y           z       tot (Debye)
 q only:       -0.006      -0.081       0.162
   full:        0.001       0.008      -0.017       0.049
molecular quadrupole (traceless):
                xx          xy          yy          xz          yz          zz
 q only:       -5.896      -6.014       1.511      -3.382      -2.208       4.386
  q+dip:       -2.771      -9.460      -1.344      -5.013      -4.135       4.115
   full:       -5.372      -6.528       0.544      -3.650      -3.198       4.827


           -------------------------------------------------
          | TOTAL ENERGY              -82.981123289762 Eh   |
          | GRADIENT NORM               0.002975804985 Eh/α |
          | HOMO-LUMO GAP               3.335676559565 eV   |
           -------------------------------------------------

------------------------------------------------------------------------
 * finished run on 2026/08/29 at 13:18:01.649     
------------------------------------------------------------------------
 total:
 * wall-time:     0 d,  0 h,  0 min,  0.804 sec
 *  cpu-time:     0 d,  0 h,  0 min,  0.803 sec
 * ratio c/w:     0.999 speedup
 SCF:
 * wall-time:     0 d,  0 h,  0 min,  0.790 sec
 *  cpu-time:     0 d,  0 h,  0 min,  0.789 sec
 * ratio c/w:     0.999 speedup

