62
 energy: -82.968219569333 gnorm: 0.000110837369 xtb: 6.7.1 (edcfbbe)
C            5.41559808040957       -2.29575430947737        0.47569196934683
C            5.21124712522635       -0.83010675811297        0.88614485226085
C            5.39397167841194       -0.72664776225331        2.40714528017578
C            6.22320299784409        0.11380008912097        0.25599084552094
C            5.97430128962414        1.48275323816780        0.31126574346822
C            6.87215687639473        2.39304315054585       -0.21182018932569
C            8.04435393915064        1.95145433873483       -0.80248126922828
C            8.30467013595597        0.59499431138840       -0.86066516514492
C            7.40325323663028       -0.31599320837836       -0.33427168856907
C            3.82089333720937       -0.42721534637065        0.42321028986047
C            3.60299795836190       -0.23783601297727       -0.93953168196700
C            2.35676616637766        0.08631337999777       -1.42820999445449
C            1.26740103073346        0.23152958083486       -0.56587129126063
N            0.03926633854691        0.58178813449473       -1.09735505964266
C           -1.22455619121739        0.40301914481435       -0.56418838904697
C           -1.52218243372542       -0.58616843315769        0.37038863127168
C           -2.80857465265858       -0.73164615591482        0.85644045732220
C           -3.84415139031123        0.08168713420621        0.41917815430478
C           -5.26760226199582       -0.00632594520277        0.94430119509097
C           -5.52899625398786       -1.27523893175796        1.76835666246787
C           -5.48850443158171        1.21157105074605        1.85330304763317
C           -6.21877020878861       -0.04769288190792       -0.24131095856259
C           -5.93686842187592       -0.92547677716554       -1.28489437887302
C           -6.78079923522362       -1.03486209035697       -2.37310748116879
C           -7.93091087082839       -0.26630424204934       -2.44010849785538
C           -8.22371630234282        0.60655609518792       -1.40884036873357
C           -7.37642685153818        0.71363399871258       -0.31788897762249
C           -3.54836217104463        1.04669438927325       -0.54086228298731
C           -2.26947730311580        1.20666376494565       -1.02649337251693
C            1.48784598279325        0.07697188804251        0.80088521405028
C            2.74193796472270       -0.25646767706009        1.27867967079026
H            6.34704629592763       -2.68859935949709        0.87697171495390
H            4.59734943586492       -2.89533797728678        0.87064610107676
H            5.42013768526497       -2.40079240360484       -0.60644516224922
H            6.43171501405690       -0.93789539016114        2.65940620549494
H            4.76538160829173       -1.44821311071854        2.92402981717947
H            5.15694435637615        0.27353478939717        2.76146683087725
H            5.05793272634180        1.83575248076777        0.76285921976200
H            6.65696223775164        3.45065098903597       -0.15946474056829
H            8.74834143738159        2.66002743715827       -1.21369269767379
H            9.21651454463501        0.23870644902729       -1.31854242470941
H            7.63511167542488       -1.36777755225502       -0.39406548675905
H            4.42951600230324       -0.33832242291164       -1.62850818728890
H            2.21477040719155        0.23282124818366       -2.49030512391038
H            0.06955992737485        1.03083625632555       -2.00084777284418
H           -0.75041980500725       -1.26493623609496        0.69837997827392
H           -2.99194068284605       -1.50985538011873        1.58044665818609
H           -5.28483875940806       -2.16807270431312        1.19798317069422
H           -4.94850807123650       -1.26774103013307        2.68810044839363
H           -6.58404828406416       -1.32070641629124        2.03287566175053
H           -6.45028415899129        1.15429584010058        2.35792923628196
H           -4.70889191826331        1.23740219539570        2.61261677146290
H           -5.43768493628494        2.13694897177256        1.28482478238717
H           -5.03701554407289       -1.52291826706383       -1.24483271335759
H           -6.54067143049279       -1.72131043168494       -3.17230172746317
H           -8.59269785051369       -0.34809845941279       -3.28988305250308
H           -9.11880540170218        1.21086456458054       -1.44982311573998
H           -7.63263497109118        1.40293239169174        0.47129351513084
H           -4.33903621196951        1.67822069121814       -0.92023986646092
H           -2.06674980258018        1.96018015543167       -1.77535121282357
H            0.68170018402675        0.24641869793195        1.49754727516288
H            2.86527913215907       -0.36775317354973        2.34442843115974
