      -----------------------------------------------------------      
     |                   =====================                   |     
     |                           x T B                           |     
     |                   =====================                   |     
     |                         S. Grimme                         |     
     |          Mulliken Center for Theoretical Chemistry        |     
     |                    University of Bonn                     |     
      -----------------------------------------------------------      

   * xtb version 6.7.1 (edcfbbe) compiled by 'albert@albert-system' on 2024-07-22

   xtb is free software: you can redistribute it and/or modify it under
   the terms of the GNU Lesser General Public License as published by
   the Free Software Foundation, either version 3 of the License, or
   (at your option) any later version.
   
   xtb is distributed in the hope that it will be useful,
   but WITHOUT ANY WARRANTY; without even the implied warranty of
   MERCHANTABILITY or FITNESS FOR A PARTICULAR PURPOSE.  See the
   GNU Lesser General Public License for more details.
   
   Cite this work as:
   * C. Bannwarth, E. Caldeweyher, S. Ehlert, A. Hansen, P. Pracht,
     J. Seibert, S. Spicher, S. Grimme, WIREs Comput. Mol. Sci., 2020, 11,
     e01493. DOI: 10.1002/wcms.1493
   
   for GFN2-xTB:
   * C. Bannwarth, S. Ehlert and S. Grimme., J. Chem. Theory Comput., 2019,
     15, 1652-1671. DOI: 10.1021/acs.jctc.8b01176
   for GFN1-xTB:
   * S. Grimme, C. Bannwarth, P. Shushkov, J. Chem. Theory Comput., 2017,
     13, 1989-2009. DOI: 10.1021/acs.jctc.7b00118
   for GFN0-xTB:
   * P. Pracht, E. Caldeweyher, S. Ehlert, S. Grimme, ChemRxiv, 2019, preprint.
     DOI: 10.26434/chemrxiv.8326202.v1
   for GFN-FF:
   * S. Spicher and S. Grimme, Angew. Chem. Int. Ed., 2020, 59, 15665-15673.
     DOI: 10.1002/anie.202004239
   
   for ALPB and GBSA implicit solvation:
   * S. Ehlert, M. Stahn, S. Spicher, S. Grimme, J. Chem. Theory Comput.,
     2021, 17, 4250-4261. DOI: 10.1021/acs.jctc.1c00471
   
   for ddCOSMO and CPCM-X implicit solvation:
   * M. Stahn, S. Ehlert, S. Grimme, J. Phys. Chem. A,
     2023, XX, XXXX-XXXX. DOI: 10.1021/acs.jpca.3c04382
   
   for DFT-D4:
   * E. Caldeweyher, C. Bannwarth and S. Grimme, J. Chem. Phys., 2017,
     147, 034112. DOI: 10.1063/1.4993215
   * E. Caldeweyher, S. Ehlert, A. Hansen, H. Neugebauer, S. Spicher,
     C. Bannwarth and S. Grimme, J. Chem. Phys., 2019, 150, 154122.
     DOI: 10.1063/1.5090222
   * E. Caldeweyher, J.-M. Mewes, S. Ehlert and S. Grimme, Phys. Chem. Chem. Phys.
     2020, 22, 8499-8512. DOI: 10.1039/D0CP00502A
   
   for sTDA-xTB:
   * S. Grimme and C. Bannwarth, J. Chem. Phys., 2016, 145, 054103.
     DOI: 10.1063/1.4959605
   
   in the mass-spec context:
   * V. Asgeirsson, C. Bauer and S. Grimme, Chem. Sci., 2017, 8, 4879.
     DOI: 10.1039/c7sc00601b
   * J. Koopman and S. Grimme, ACS Omega 2019, 4, 12, 15120-15133.
     DOI: 10.1021/acsomega.9b02011
   
   for metadynamics refer to:
   * S. Grimme, J. Chem. Theory Comput., 2019, 155, 2847-2862
     DOI: 10.1021/acs.jctc.9b00143
   
   for SPH calculations refer to:
   * S. Spicher and S. Grimme, J. Chem. Theory Comput., 2021, 17, 1701-1714
     DOI: 10.1021/acs.jctc.0c01306
   
   for ONIOM refer to:
   * C. Plett, A. Katbashev, S. Ehlert, S. Grimme, M. Bursch,
     Phys. Chem. Chem. Phys., 2023, 25, 17860-17868. DOI: 10.1039/D3CP02178E
   
   for DIPRO refer to:
   * J. Kohn, N. Gildemeister, S. Grimme, D. Fazzi, A. Hansen,
     J. Chem. Phys., 2023, just accepted.
   
   for PTB refer to:
   * S. Grimme, M. Mueller, A. Hansen, J. Chem. Phys., 2023, 158, 124111.
     DOI: 10.1063/5.0137838
   
   with help from (in alphabetical order)
   P. Atkinson, C. Bannwarth, F. Bohle, G. Brandenburg, E. Caldeweyher
   M. Checinski, S. Dohm, S. Ehlert, S. Ehrlich, I. Gerasimov, C. Hölzer
   A. Katbashev, J. Kohn, J. Koopman, C. Lavigne, S. Lehtola, F. März, M. Müller,
   F. Musil, H. Neugebauer, J. Pisarek, C. Plett, P. Pracht, F. Pultar,
   J. Seibert, P. Shushkov, S. Spicher, M. Stahn, M. Steiner, T. Strunk,
   J. Stückrath, T. Rose, and J. Unsleber
   
 * started run on 2026/08/29 at 13:17:56.596     
   ID    Z sym.   atoms
    1    6 c      1-11
    2    1 h      12-21

           -------------------------------------------------
          |                Calculation Setup                |
           -------------------------------------------------

          program call               : xtb coord --gfn 2 --norestart
          coordinate file            : coord
          omp threads                :                     1


           -------------------------------------------------
          |                 G F N 2 - x T B                 |
           -------------------------------------------------

        Reference                      10.1021/acs.jctc.8b01176
      * Hamiltonian:
        H0-scaling (s, p, d)           1.850000    2.230000    2.230000
        zeta-weighting                 0.500000
      * Dispersion:
        s8                             2.700000
        a1                             0.520000
        a2                             5.000000
        s9                             5.000000
      * Repulsion:
        kExp                           1.500000    1.000000
        rExp                           1.000000
      * Coulomb:
        alpha                          2.000000
        third order                    shell-resolved
        anisotropic                    true
        a3                             3.000000
        a5                             4.000000
        cn-shift                       1.200000
        cn-exp                         4.000000
        max-rad                        5.000000


          ...................................................
          :                      SETUP                      :
          :.................................................:
          :  # basis functions                  54          :
          :  # atomic orbitals                  54          :
          :  # shells                           32          :
          :  # electrons                        54          :
          :  max. iterations                   250          :
          :  Hamiltonian                  GFN2-xTB          :
          :  restarted?                      false          :
          :  GBSA solvation                  false          :
          :  PC potential                    false          :
          :  electronic temp.          300.0000000     K    :
          :  accuracy                    1.0000000          :
          :  -> integral cutoff          0.2500000E+02      :
          :  -> integral neglect         0.1000000E-07      :
          :  -> SCF convergence          0.1000000E-05 Eh   :
          :  -> wf. convergence          0.1000000E-03 e    :
          :  Broyden damping             0.4000000          :
          :  net charge                          0          :
          :  unpaired electrons                  0          :
          ...................................................

 iter      E             dE          RMSdq      gap      omega  full diag
   1    -29.1772571 -0.291773E+02  0.444E+00    3.22       0.0  T
   2    -29.1964414 -0.191843E-01  0.263E+00    3.20       1.0  T
   3    -29.1912350  0.520647E-02  0.779E-01    3.20       1.0  T
   4    -29.1972501 -0.601513E-02  0.305E-01    3.19       1.0  T
   5    -29.1986382 -0.138809E-02  0.767E-02    3.19       1.0  T
   6    -29.1987355 -0.972658E-04  0.344E-02    3.19       1.0  T
   7    -29.1987420 -0.654864E-05  0.157E-02    3.19       1.4  T
   8    -29.1987433 -0.127020E-05  0.404E-03    3.19       5.4  T
   9    -29.1987435 -0.184166E-06  0.663E-04    3.19      32.9  T
  10    -29.1987435 -0.228709E-08  0.393E-04    3.19      55.5  T

   *** convergence criteria satisfied after 10 iterations ***

         #    Occupation            Energy/Eh            Energy/eV
      -------------------------------------------------------------
         1        2.0000           -0.6451935             -17.5566
       ...           ...                  ...                  ...
        21        2.0000           -0.4450504             -12.1104
        22        2.0000           -0.4380802             -11.9208
        23        2.0000           -0.4150546             -11.2942
        24        2.0000           -0.4116542             -11.2017
        25        2.0000           -0.4091930             -11.1347
        26        2.0000           -0.3951946             -10.7538
        27        2.0000           -0.3708844             -10.0923 (HOMO)
        28                         -0.2536828              -6.9031 (LUMO)
        29                         -0.2230828              -6.0704
        30                         -0.1832321              -4.9860
        31                         -0.1392464              -3.7891
        32                         -0.0520942              -1.4176
       ...                                ...                  ...
        54                          0.6983387              19.0028
      -------------------------------------------------------------
                  HL-Gap            0.1172016 Eh            3.1892 eV
             Fermi-level           -0.3122836 Eh           -8.4977 eV

 SCC (total)                   0 d,  0 h,  0 min,  0.010 sec
 SCC setup                      ...        0 min,  0.000 sec (  1.311%)
 Dispersion                     ...        0 min,  0.000 sec (  0.850%)
 classical contributions        ...        0 min,  0.000 sec (  0.162%)
 integral evaluation            ...        0 min,  0.001 sec ( 12.755%)
 iterations                     ...        0 min,  0.005 sec ( 49.188%)
 molecular gradient             ...        0 min,  0.004 sec ( 34.539%)
 printout                       ...        0 min,  0.000 sec (  1.081%)

         :::::::::::::::::::::::::::::::::::::::::::::::::::::
         ::                     SUMMARY                     ::
         :::::::::::::::::::::::::::::::::::::::::::::::::::::
         :: total energy             -28.643942321599 Eh    ::
         :: gradient norm              0.000100936155 Eh/a0 ::
         :: HOMO-LUMO gap              3.189217057613 eV    ::
         ::.................................................::
         :: SCC energy               -29.198661738435 Eh    ::
         :: -> isotropic ES            0.002155151874 Eh    ::
         :: -> anisotropic ES          0.004420949499 Eh    ::
         :: -> anisotropic XC          0.018523008056 Eh    ::
         :: -> dispersion             -0.019789498703 Eh    ::
         :: repulsion energy           0.554719416836 Eh    ::
         :: add. restraining           0.000000000000 Eh    ::
         :: total charge              -0.000000000000 e     ::
         :::::::::::::::::::::::::::::::::::::::::::::::::::::

           -------------------------------------------------
          |                Property Printout                |
           -------------------------------------------------

    * Orbital Energies and Occupations

         #    Occupation            Energy/Eh            Energy/eV
      -------------------------------------------------------------
         1        2.0000           -0.6451935             -17.5566
       ...           ...                  ...                  ...
        15        2.0000           -0.4836633             -13.1611
        16        2.0000           -0.4746137             -12.9149
        17        2.0000           -0.4732425             -12.8776
        18        2.0000           -0.4687197             -12.7545
        19        2.0000           -0.4585346             -12.4774
        20        2.0000           -0.4532771             -12.3343
        21        2.0000           -0.4450504             -12.1104
        22        2.0000           -0.4380802             -11.9208
        23        2.0000           -0.4150546             -11.2942
        24        2.0000           -0.4116542             -11.2017
        25        2.0000           -0.4091930             -11.1347
        26        2.0000           -0.3951946             -10.7538
        27        2.0000           -0.3708844             -10.0923 (HOMO)
        28                         -0.2536828              -6.9031 (LUMO)
        29                         -0.2230828              -6.0704
        30                         -0.1832321              -4.9860
        31                         -0.1392464              -3.7891
        32                         -0.0520942              -1.4176
        33                          0.1001508               2.7252
        34                          0.1162758               3.1640
        35                          0.1267031               3.4478
        36                          0.1455428               3.9604
        37                          0.1536178               4.1802
        38                          0.1669688               4.5435
       ...                                ...                  ...
        54                          0.6983387              19.0028
      -------------------------------------------------------------
                  HL-Gap            0.1172016 Eh            3.1892 eV
             Fermi-level           -0.3122836 Eh           -8.4977 eV

     #   Z          covCN         q      C6AA      α(0)
     1   6 c        3.758    -0.107    22.598     6.777
     2   6 c        2.963     0.011    27.762     8.642
     3   6 c        2.922    -0.042    29.037     8.837
     4   6 c        2.914    -0.032    28.799     8.800
     5   6 c        2.919    -0.040    29.004     8.832
     6   6 c        2.987     0.011    27.752     8.642
     7   6 c        2.920    -0.035    28.879     8.813
     8   6 c        2.915    -0.031    28.775     8.796
     9   6 c        2.916    -0.032    28.799     8.800
    10   6 c        2.918    -0.037    28.910     8.817
    11   6 c        2.987     0.004    27.920     8.668
    12   1 h        0.925     0.040     2.450     2.448
    13   1 h        0.925     0.046     2.374     2.410
    14   1 h        0.925     0.046     2.374     2.410
    15   1 h        0.926     0.027     2.629     2.535
    16   1 h        0.926     0.028     2.621     2.532
    17   1 h        0.926     0.028     2.613     2.528
    18   1 h        0.926     0.029     2.604     2.524
    19   1 h        0.926     0.027     2.627     2.535
    20   1 h        0.926     0.026     2.637     2.540
    21   1 h        0.926     0.033     2.545     2.495

 Mol. C6AA /au·bohr⁶  :       5492.989682
 Mol. C8AA /au·bohr⁸  :     135623.710601
 Mol. α(0) /au        :        119.377985


Wiberg/Mayer (AO) data.
largest (>0.10) Wiberg bond orders for each atom

 ---------------------------------------------------------------------------
     #   Z sym  total        # sym  WBO       # sym  WBO       # sym  WBO
 ---------------------------------------------------------------------------
     1   6 c    3.996 --     2 c    1.026    12 h    0.985    14 h    0.971
                            13 h    0.971
     2   6 c    3.988 --     3 c    1.529    11 c    1.249     1 c    1.026
                             5 c    0.115
     3   6 c    3.991 --     2 c    1.529     4 c    1.322    15 h    0.969
     4   6 c    3.993 --     5 c    1.557     3 c    1.322    16 h    0.971
     5   6 c    3.992 --     4 c    1.557     6 c    1.276    17 h    0.969
                             2 c    0.115
     6   6 c    3.991 --     7 c    1.281     5 c    1.276    11 c    1.256
     7   6 c    3.992 --     8 c    1.556     6 c    1.281    18 h    0.968
                            10 c    0.118
     8   6 c    3.993 --     7 c    1.556     9 c    1.324    19 h    0.971
     9   6 c    3.993 --    10 c    1.553     8 c    1.324    20 h    0.971
    10   6 c    3.992 --     9 c    1.553    11 c    1.286    21 h    0.967
                             7 c    0.118
    11   6 c    3.990 --    10 c    1.286     6 c    1.256     2 c    1.249
    12   1 h    0.998 --     1 c    0.985
    13   1 h    0.998 --     1 c    0.971
    14   1 h    0.998 --     1 c    0.971
    15   1 h    0.999 --     3 c    0.969
    16   1 h    0.999 --     4 c    0.971
    17   1 h    0.998 --     5 c    0.969
    18   1 h    0.999 --     7 c    0.968
    19   1 h    0.998 --     8 c    0.971
    20   1 h    0.999 --     9 c    0.971
    21   1 h    0.998 --    10 c    0.967
 ---------------------------------------------------------------------------

Topologies differ in total number of bonds
Writing topology from bond orders to xtbtopo.mol

molecular dipole:
                 x           y           z       tot (Debye)
 q only:        0.164      -0.154      -0.013
   full:        0.154      -0.162      -0.012       0.569
molecular quadrupole (traceless):
                xx          xy          yy          xz          yz          zz
 q only:        1.329      -1.051       0.818      -0.223       0.120      -2.147
  q+dip:        4.321      -0.627       3.828      -0.737       0.276      -8.148
   full:        2.277      -0.911       1.784      -0.387       0.170      -4.061


           -------------------------------------------------
          | TOTAL ENERGY              -28.643942321599 Eh   |
          | GRADIENT NORM               0.000100936155 Eh/α |
          | HOMO-LUMO GAP               3.189217057613 eV   |
           -------------------------------------------------

------------------------------------------------------------------------
 * finished run on 2026/08/29 at 13:17:56.615     
------------------------------------------------------------------------
 total:
 * wall-time:     0 d,  0 h,  0 min,  0.018 sec
 *  cpu-time:     0 d,  0 h,  0 min,  0.018 sec
 * ratio c/w:     0.973 speedup
 SCF:
 * wall-time:     0 d,  0 h,  0 min,  0.011 sec
 *  cpu-time:     0 d,  0 h,  0 min,  0.010 sec
 * ratio c/w:     0.961 speedup

