      -----------------------------------------------------------      
     |                   =====================                   |     
     |                           x T B                           |     
     |                   =====================                   |     
     |                         S. Grimme                         |     
     |          Mulliken Center for Theoretical Chemistry        |     
     |                    University of Bonn                     |     
      -----------------------------------------------------------      

   * xtb version 6.7.1 (edcfbbe) compiled by 'albert@albert-system' on 2024-07-22

   xtb is free software: you can redistribute it and/or modify it under
   the terms of the GNU Lesser General Public License as published by
   the Free Software Foundation, either version 3 of the License, or
   (at your option) any later version.
   
   xtb is distributed in the hope that it will be useful,
   but WITHOUT ANY WARRANTY; without even the implied warranty of
   MERCHANTABILITY or FITNESS FOR A PARTICULAR PURPOSE.  See the
   GNU Lesser General Public License for more details.
   
   Cite this work as:
   * C. Bannwarth, E. Caldeweyher, S. Ehlert, A. Hansen, P. Pracht,
     J. Seibert, S. Spicher, S. Grimme, WIREs Comput. Mol. Sci., 2020, 11,
     e01493. DOI: 10.1002/wcms.1493
   
   for GFN2-xTB:
   * C. Bannwarth, S. Ehlert and S. Grimme., J. Chem. Theory Comput., 2019,
     15, 1652-1671. DOI: 10.1021/acs.jctc.8b01176
   for GFN1-xTB:
   * S. Grimme, C. Bannwarth, P. Shushkov, J. Chem. Theory Comput., 2017,
     13, 1989-2009. DOI: 10.1021/acs.jctc.7b00118
   for GFN0-xTB:
   * P. Pracht, E. Caldeweyher, S. Ehlert, S. Grimme, ChemRxiv, 2019, preprint.
     DOI: 10.26434/chemrxiv.8326202.v1
   for GFN-FF:
   * S. Spicher and S. Grimme, Angew. Chem. Int. Ed., 2020, 59, 15665-15673.
     DOI: 10.1002/anie.202004239
   
   for ALPB and GBSA implicit solvation:
   * S. Ehlert, M. Stahn, S. Spicher, S. Grimme, J. Chem. Theory Comput.,
     2021, 17, 4250-4261. DOI: 10.1021/acs.jctc.1c00471
   
   for ddCOSMO and CPCM-X implicit solvation:
   * M. Stahn, S. Ehlert, S. Grimme, J. Phys. Chem. A,
     2023, XX, XXXX-XXXX. DOI: 10.1021/acs.jpca.3c04382
   
   for DFT-D4:
   * E. Caldeweyher, C. Bannwarth and S. Grimme, J. Chem. Phys., 2017,
     147, 034112. DOI: 10.1063/1.4993215
   * E. Caldeweyher, S. Ehlert, A. Hansen, H. Neugebauer, S. Spicher,
     C. Bannwarth and S. Grimme, J. Chem. Phys., 2019, 150, 154122.
     DOI: 10.1063/1.5090222
   * E. Caldeweyher, J.-M. Mewes, S. Ehlert and S. Grimme, Phys. Chem. Chem. Phys.
     2020, 22, 8499-8512. DOI: 10.1039/D0CP00502A
   
   for sTDA-xTB:
   * S. Grimme and C. Bannwarth, J. Chem. Phys., 2016, 145, 054103.
     DOI: 10.1063/1.4959605
   
   in the mass-spec context:
   * V. Asgeirsson, C. Bauer and S. Grimme, Chem. Sci., 2017, 8, 4879.
     DOI: 10.1039/c7sc00601b
   * J. Koopman and S. Grimme, ACS Omega 2019, 4, 12, 15120-15133.
     DOI: 10.1021/acsomega.9b02011
   
   for metadynamics refer to:
   * S. Grimme, J. Chem. Theory Comput., 2019, 155, 2847-2862
     DOI: 10.1021/acs.jctc.9b00143
   
   for SPH calculations refer to:
   * S. Spicher and S. Grimme, J. Chem. Theory Comput., 2021, 17, 1701-1714
     DOI: 10.1021/acs.jctc.0c01306
   
   for ONIOM refer to:
   * C. Plett, A. Katbashev, S. Ehlert, S. Grimme, M. Bursch,
     Phys. Chem. Chem. Phys., 2023, 25, 17860-17868. DOI: 10.1039/D3CP02178E
   
   for DIPRO refer to:
   * J. Kohn, N. Gildemeister, S. Grimme, D. Fazzi, A. Hansen,
     J. Chem. Phys., 2023, just accepted.
   
   for PTB refer to:
   * S. Grimme, M. Mueller, A. Hansen, J. Chem. Phys., 2023, 158, 124111.
     DOI: 10.1063/5.0137838
   
   with help from (in alphabetical order)
   P. Atkinson, C. Bannwarth, F. Bohle, G. Brandenburg, E. Caldeweyher
   M. Checinski, S. Dohm, S. Ehlert, S. Ehrlich, I. Gerasimov, C. Hölzer
   A. Katbashev, J. Kohn, J. Koopman, C. Lavigne, S. Lehtola, F. März, M. Müller,
   F. Musil, H. Neugebauer, J. Pisarek, C. Plett, P. Pracht, F. Pultar,
   J. Seibert, P. Shushkov, S. Spicher, M. Stahn, M. Steiner, T. Strunk,
   J. Stückrath, T. Rose, and J. Unsleber
   
 * started run on 2026/08/29 at 13:17:56.619     
   ID    Z sym.   atoms
    1    6 c      1-11
    2    1 h      12-21

           -------------------------------------------------
          |                Calculation Setup                |
           -------------------------------------------------

          program call               : xtb coord --gfn 2 --cosmo inf --norestart
          coordinate file            : coord
          omp threads                :                     1


           -------------------------------------------------
          |                 G F N 2 - x T B                 |
           -------------------------------------------------

        Reference                      10.1021/acs.jctc.8b01176
      * Hamiltonian:
        H0-scaling (s, p, d)           1.850000    2.230000    2.230000
        zeta-weighting                 0.500000
      * Dispersion:
        s8                             2.700000
        a1                             0.520000
        a2                             5.000000
        s9                             5.000000
      * Repulsion:
        kExp                           1.500000    1.000000
        rExp                           1.000000
      * Coulomb:
        alpha                          2.000000
        third order                    shell-resolved
        anisotropic                    true
        a3                             3.000000
        a5                             4.000000
        cn-shift                       1.200000
        cn-exp                         4.000000
        max-rad                        5.000000

      * Solvation model:               COSMO
        Solvent                        inf
        Parameter file                 internal GFN-xTB/COSMO
        Dielectric constant                  Infinity
        Reference state                gsolv [1 M gas/solution]
        Free energy shift                  0.0000E+00 Eh       0.0000E+00 kcal/mol
        Temperature                        2.9815E+02 K
        Density                            1.0000E+00 kg/L
        Solvent mass                       1.8000E+01 g/mol
        vdW Radii scaling                  1.0000E+00
        Surface tension                    1.0000E-05 Eh       1.5569E+01 dyn/cm
        Grid points                               230 per atom

          ...................................................
          :                      SETUP                      :
          :.................................................:
          :  # basis functions                  54          :
          :  # atomic orbitals                  54          :
          :  # shells                           32          :
          :  # electrons                        54          :
          :  max. iterations                   250          :
          :  Hamiltonian                  GFN2-xTB          :
          :  restarted?                      false          :
          :  GBSA solvation                   true          :
          :  PC potential                    false          :
          :  electronic temp.          300.0000000     K    :
          :  accuracy                    1.0000000          :
          :  -> integral cutoff          0.2500000E+02      :
          :  -> integral neglect         0.1000000E-07      :
          :  -> SCF convergence          0.1000000E-05 Eh   :
          :  -> wf. convergence          0.1000000E-03 e    :
          :  Broyden damping             0.4000000          :
          :  net charge                          0          :
          :  unpaired electrons                  0          :
          ...................................................

 iter      E             dE          RMSdq      gap      omega  full diag
   1    -29.1927114 -0.291927E+02  0.443E+00    3.21       0.0  T
   2    -29.2034512 -0.107397E-01  0.263E+00    3.20       1.0  T
   3    -29.1941959  0.925524E-02  0.830E-01    3.20       1.0  T
   4    -29.2043073 -0.101114E-01  0.196E-01    3.18       1.0  T
   5    -29.2048141 -0.506726E-03  0.754E-02    3.18       1.0  T
   6    -29.2049666 -0.152530E-03  0.309E-02    3.18       1.0  T
   7    -29.2049773 -0.107224E-04  0.146E-02    3.18       1.5  T
   8    -29.2049850 -0.770837E-05  0.557E-03    3.18       3.9  T
   9    -29.2049832  0.179139E-05  0.597E-04    3.18      36.5  T
  10    -29.2049831  0.185745E-06  0.346E-04    3.18      63.0  T
  11    -29.2049830  0.479931E-07  0.974E-05    3.18     224.1  T

   *** convergence criteria satisfied after 11 iterations ***

         #    Occupation            Energy/Eh            Energy/eV
      -------------------------------------------------------------
         1        2.0000           -0.6460380             -17.5796
       ...           ...                  ...                  ...
        21        2.0000           -0.4456587             -12.1270
        22        2.0000           -0.4384456             -11.9307
        23        2.0000           -0.4154640             -11.3054
        24        2.0000           -0.4122085             -11.2168
        25        2.0000           -0.4095067             -11.1432
        26        2.0000           -0.3961902             -10.7809
        27        2.0000           -0.3714624             -10.1080 (HOMO)
        28                         -0.2544265              -6.9233 (LUMO)
        29                         -0.2240836              -6.0976
        30                         -0.1840629              -5.0086
        31                         -0.1400803              -3.8118
        32                         -0.0530241              -1.4429
       ...                                ...                  ...
        54                          0.6974666              18.9790
      -------------------------------------------------------------
                  HL-Gap            0.1170359 Eh            3.1847 eV
             Fermi-level           -0.3129444 Eh           -8.5157 eV

 SCC (total)                   0 d,  0 h,  0 min,  0.176 sec
 SCC setup                      ...        0 min,  0.001 sec (  0.379%)
 Dispersion                     ...        0 min,  0.000 sec (  0.048%)
 classical contributions        ...        0 min,  0.000 sec (  0.009%)
 integral evaluation            ...        0 min,  0.001 sec (  0.818%)
 iterations                     ...        0 min,  0.159 sec ( 90.460%)
 molecular gradient             ...        0 min,  0.012 sec (  6.607%)
 printout                       ...        0 min,  0.003 sec (  1.668%)

         :::::::::::::::::::::::::::::::::::::::::::::::::::::
         ::                     SUMMARY                     ::
         :::::::::::::::::::::::::::::::::::::::::::::::::::::
         :: total energy             -28.650181867527 Eh    ::
         :: total w/o Gsasa/hb       -28.644439592304 Eh    ::
         :: gradient norm              0.001262550202 Eh/a0 ::
         :: HOMO-LUMO gap              3.184708693509 eV    ::
         ::.................................................::
         :: SCC energy               -29.204901284363 Eh    ::
         :: -> isotropic ES            0.002637654837 Eh    ::
         :: -> anisotropic ES          0.004459126155 Eh    ::
         :: -> anisotropic XC          0.018539993776 Eh    ::
         :: -> dispersion             -0.019754750620 Eh    ::
         :: -> Gsolv                  -0.006347669631 Eh    ::
         ::    -> Gelec               -0.000605394408 Eh    ::
         ::    -> Gsasa               -0.005742275223 Eh    ::
         ::    -> Ghb                  0.000000000000 Eh    ::
         ::    -> Gshift               0.000000000000 Eh    ::
         :: repulsion energy           0.554719416836 Eh    ::
         :: add. restraining           0.000000000000 Eh    ::
         :: total charge              -0.000000000000 e     ::
         :::::::::::::::::::::::::::::::::::::::::::::::::::::

           -------------------------------------------------
          |                Property Printout                |
           -------------------------------------------------

    * Orbital Energies and Occupations

         #    Occupation            Energy/Eh            Energy/eV
      -------------------------------------------------------------
         1        2.0000           -0.6460380             -17.5796
       ...           ...                  ...                  ...
        15        2.0000           -0.4836367             -13.1604
        16        2.0000           -0.4733508             -12.8805
        17        2.0000           -0.4731317             -12.8746
        18        2.0000           -0.4689032             -12.7595
        19        2.0000           -0.4583864             -12.4733
        20        2.0000           -0.4520528             -12.3010
        21        2.0000           -0.4456587             -12.1270
        22        2.0000           -0.4384456             -11.9307
        23        2.0000           -0.4154640             -11.3054
        24        2.0000           -0.4122085             -11.2168
        25        2.0000           -0.4095067             -11.1432
        26        2.0000           -0.3961902             -10.7809
        27        2.0000           -0.3714624             -10.1080 (HOMO)
        28                         -0.2544265              -6.9233 (LUMO)
        29                         -0.2240836              -6.0976
        30                         -0.1840629              -5.0086
        31                         -0.1400803              -3.8118
        32                         -0.0530241              -1.4429
        33                          0.1004131               2.7324
        34                          0.1162776               3.1641
        35                          0.1274532               3.4682
        36                          0.1450987               3.9483
        37                          0.1534407               4.1753
        38                          0.1669250               4.5423
       ...                                ...                  ...
        54                          0.6974666              18.9790
      -------------------------------------------------------------
                  HL-Gap            0.1170359 Eh            3.1847 eV
             Fermi-level           -0.3129444 Eh           -8.5157 eV

     #   Z          covCN         q      C6AA      α(0)
     1   6 c        3.758    -0.111    22.679     6.790
     2   6 c        2.963     0.010    27.784     8.646
     3   6 c        2.922    -0.045    29.113     8.848
     4   6 c        2.914    -0.035    28.869     8.811
     5   6 c        2.919    -0.044    29.090     8.845
     6   6 c        2.987     0.007    27.846     8.656
     7   6 c        2.920    -0.039    28.959     8.825
     8   6 c        2.915    -0.034    28.842     8.807
     9   6 c        2.916    -0.035    28.866     8.810
    10   6 c        2.918    -0.039    28.971     8.826
    11   6 c        2.987     0.001    27.990     8.678
    12   1 h        0.925     0.044     2.397     2.421
    13   1 h        0.925     0.051     2.302     2.373
    14   1 h        0.925     0.051     2.302     2.372
    15   1 h        0.926     0.030     2.581     2.512
    16   1 h        0.926     0.028     2.612     2.528
    17   1 h        0.926     0.028     2.613     2.528
    18   1 h        0.926     0.029     2.593     2.518
    19   1 h        0.926     0.029     2.607     2.525
    20   1 h        0.926     0.029     2.595     2.519
    21   1 h        0.926     0.041     2.435     2.440

 Mol. C6AA /au·bohr⁶  :       5483.146913
 Mol. C8AA /au·bohr⁸  :     135556.222613
 Mol. α(0) /au        :        119.277759


Wiberg/Mayer (AO) data.
largest (>0.10) Wiberg bond orders for each atom

 ---------------------------------------------------------------------------
     #   Z sym  total        # sym  WBO       # sym  WBO       # sym  WBO
 ---------------------------------------------------------------------------
     1   6 c    3.995 --     2 c    1.027    12 h    0.984    13 h    0.970
                            14 h    0.970
     2   6 c    3.988 --     3 c    1.528    11 c    1.248     1 c    1.027
                             5 c    0.114
     3   6 c    3.991 --     2 c    1.528     4 c    1.323    15 h    0.968
     4   6 c    3.992 --     5 c    1.557     3 c    1.323    16 h    0.971
     5   6 c    3.992 --     4 c    1.557     6 c    1.275    17 h    0.968
                             2 c    0.114
     6   6 c    3.991 --     7 c    1.281     5 c    1.275    11 c    1.256
     7   6 c    3.992 --     8 c    1.556     6 c    1.281    18 h    0.968
                            10 c    0.118
     8   6 c    3.992 --     7 c    1.556     9 c    1.324    19 h    0.971
     9   6 c    3.992 --    10 c    1.553     8 c    1.324    20 h    0.971
    10   6 c    3.992 --     9 c    1.553    11 c    1.286    21 h    0.966
                             7 c    0.118
    11   6 c    3.990 --    10 c    1.286     6 c    1.256     2 c    1.248
    12   1 h    0.998 --     1 c    0.984
    13   1 h    0.997 --     1 c    0.970
    14   1 h    0.997 --     1 c    0.970
    15   1 h    0.999 --     3 c    0.968
    16   1 h    0.999 --     4 c    0.971
    17   1 h    0.998 --     5 c    0.968
    18   1 h    0.999 --     7 c    0.968
    19   1 h    0.998 --     8 c    0.971
    20   1 h    0.999 --     9 c    0.971
    21   1 h    0.998 --    10 c    0.966
 ---------------------------------------------------------------------------

Topologies differ in total number of bonds
Writing topology from bond orders to xtbtopo.mol

molecular dipole:
                 x           y           z       tot (Debye)
 q only:        0.247      -0.251      -0.019
   full:        0.213      -0.230      -0.017       0.798
molecular quadrupole (traceless):
                xx          xy          yy          xz          yz          zz
 q only:        1.500      -1.224       0.885      -0.250       0.136      -2.385
  q+dip:        4.434      -0.750       3.868      -0.755       0.287      -8.302
   full:        2.392      -1.032       1.824      -0.405       0.181      -4.217


           -------------------------------------------------
          | TOTAL ENERGY              -28.650181867527 Eh   |
          | GRADIENT NORM               0.001262550202 Eh/α |
          | HOMO-LUMO GAP               3.184708693509 eV   |
           -------------------------------------------------

------------------------------------------------------------------------
 * finished run on 2026/08/29 at 13:17:56.803     
------------------------------------------------------------------------
 total:
 * wall-time:     0 d,  0 h,  0 min,  0.183 sec
 *  cpu-time:     0 d,  0 h,  0 min,  0.183 sec
 * ratio c/w:     0.997 speedup
 SCF:
 * wall-time:     0 d,  0 h,  0 min,  0.176 sec
 *  cpu-time:     0 d,  0 h,  0 min,  0.175 sec
 * ratio c/w:     0.997 speedup

