      -----------------------------------------------------------      
     |                   =====================                   |     
     |                           x T B                           |     
     |                   =====================                   |     
     |                         S. Grimme                         |     
     |          Mulliken Center for Theoretical Chemistry        |     
     |                    University of Bonn                     |     
      -----------------------------------------------------------      

   * xtb version 6.7.1 (edcfbbe) compiled by 'albert@albert-system' on 2024-07-22

   xtb is free software: you can redistribute it and/or modify it under
   the terms of the GNU Lesser General Public License as published by
   the Free Software Foundation, either version 3 of the License, or
   (at your option) any later version.
   
   xtb is distributed in the hope that it will be useful,
   but WITHOUT ANY WARRANTY; without even the implied warranty of
   MERCHANTABILITY or FITNESS FOR A PARTICULAR PURPOSE.  See the
   GNU Lesser General Public License for more details.
   
   Cite this work as:
   * C. Bannwarth, E. Caldeweyher, S. Ehlert, A. Hansen, P. Pracht,
     J. Seibert, S. Spicher, S. Grimme, WIREs Comput. Mol. Sci., 2020, 11,
     e01493. DOI: 10.1002/wcms.1493
   
   for GFN2-xTB:
   * C. Bannwarth, S. Ehlert and S. Grimme., J. Chem. Theory Comput., 2019,
     15, 1652-1671. DOI: 10.1021/acs.jctc.8b01176
   for GFN1-xTB:
   * S. Grimme, C. Bannwarth, P. Shushkov, J. Chem. Theory Comput., 2017,
     13, 1989-2009. DOI: 10.1021/acs.jctc.7b00118
   for GFN0-xTB:
   * P. Pracht, E. Caldeweyher, S. Ehlert, S. Grimme, ChemRxiv, 2019, preprint.
     DOI: 10.26434/chemrxiv.8326202.v1
   for GFN-FF:
   * S. Spicher and S. Grimme, Angew. Chem. Int. Ed., 2020, 59, 15665-15673.
     DOI: 10.1002/anie.202004239
   
   for ALPB and GBSA implicit solvation:
   * S. Ehlert, M. Stahn, S. Spicher, S. Grimme, J. Chem. Theory Comput.,
     2021, 17, 4250-4261. DOI: 10.1021/acs.jctc.1c00471
   
   for ddCOSMO and CPCM-X implicit solvation:
   * M. Stahn, S. Ehlert, S. Grimme, J. Phys. Chem. A,
     2023, XX, XXXX-XXXX. DOI: 10.1021/acs.jpca.3c04382
   
   for DFT-D4:
   * E. Caldeweyher, C. Bannwarth and S. Grimme, J. Chem. Phys., 2017,
     147, 034112. DOI: 10.1063/1.4993215
   * E. Caldeweyher, S. Ehlert, A. Hansen, H. Neugebauer, S. Spicher,
     C. Bannwarth and S. Grimme, J. Chem. Phys., 2019, 150, 154122.
     DOI: 10.1063/1.5090222
   * E. Caldeweyher, J.-M. Mewes, S. Ehlert and S. Grimme, Phys. Chem. Chem. Phys.
     2020, 22, 8499-8512. DOI: 10.1039/D0CP00502A
   
   for sTDA-xTB:
   * S. Grimme and C. Bannwarth, J. Chem. Phys., 2016, 145, 054103.
     DOI: 10.1063/1.4959605
   
   in the mass-spec context:
   * V. Asgeirsson, C. Bauer and S. Grimme, Chem. Sci., 2017, 8, 4879.
     DOI: 10.1039/c7sc00601b
   * J. Koopman and S. Grimme, ACS Omega 2019, 4, 12, 15120-15133.
     DOI: 10.1021/acsomega.9b02011
   
   for metadynamics refer to:
   * S. Grimme, J. Chem. Theory Comput., 2019, 155, 2847-2862
     DOI: 10.1021/acs.jctc.9b00143
   
   for SPH calculations refer to:
   * S. Spicher and S. Grimme, J. Chem. Theory Comput., 2021, 17, 1701-1714
     DOI: 10.1021/acs.jctc.0c01306
   
   for ONIOM refer to:
   * C. Plett, A. Katbashev, S. Ehlert, S. Grimme, M. Bursch,
     Phys. Chem. Chem. Phys., 2023, 25, 17860-17868. DOI: 10.1039/D3CP02178E
   
   for DIPRO refer to:
   * J. Kohn, N. Gildemeister, S. Grimme, D. Fazzi, A. Hansen,
     J. Chem. Phys., 2023, just accepted.
   
   for PTB refer to:
   * S. Grimme, M. Mueller, A. Hansen, J. Chem. Phys., 2023, 158, 124111.
     DOI: 10.1063/5.0137838
   
   with help from (in alphabetical order)
   P. Atkinson, C. Bannwarth, F. Bohle, G. Brandenburg, E. Caldeweyher
   M. Checinski, S. Dohm, S. Ehlert, S. Ehrlich, I. Gerasimov, C. Hölzer
   A. Katbashev, J. Kohn, J. Koopman, C. Lavigne, S. Lehtola, F. März, M. Müller,
   F. Musil, H. Neugebauer, J. Pisarek, C. Plett, P. Pracht, F. Pultar,
   J. Seibert, P. Shushkov, S. Spicher, M. Stahn, M. Steiner, T. Strunk,
   J. Stückrath, T. Rose, and J. Unsleber
   
 * started run on 2026/08/29 at 13:17:57.147     
   ID    Z sym.   atoms
    1    6 c      1-16
    2    1 h      17-26

           -------------------------------------------------
          |                Calculation Setup                |
           -------------------------------------------------

          program call               : xtb coord --gfn 2 --norestart
          coordinate file            : coord
          omp threads                :                     1


           -------------------------------------------------
          |                 G F N 2 - x T B                 |
           -------------------------------------------------

        Reference                      10.1021/acs.jctc.8b01176
      * Hamiltonian:
        H0-scaling (s, p, d)           1.850000    2.230000    2.230000
        zeta-weighting                 0.500000
      * Dispersion:
        s8                             2.700000
        a1                             0.520000
        a2                             5.000000
        s9                             5.000000
      * Repulsion:
        kExp                           1.500000    1.000000
        rExp                           1.000000
      * Coulomb:
        alpha                          2.000000
        third order                    shell-resolved
        anisotropic                    true
        a3                             3.000000
        a5                             4.000000
        cn-shift                       1.200000
        cn-exp                         4.000000
        max-rad                        5.000000


          ...................................................
          :                      SETUP                      :
          :.................................................:
          :  # basis functions                  74          :
          :  # atomic orbitals                  74          :
          :  # shells                           42          :
          :  # electrons                        74          :
          :  max. iterations                   250          :
          :  Hamiltonian                  GFN2-xTB          :
          :  restarted?                      false          :
          :  GBSA solvation                  false          :
          :  PC potential                    false          :
          :  electronic temp.          300.0000000     K    :
          :  accuracy                    1.0000000          :
          :  -> integral cutoff          0.2500000E+02      :
          :  -> integral neglect         0.1000000E-07      :
          :  -> SCF convergence          0.1000000E-05 Eh   :
          :  -> wf. convergence          0.1000000E-03 e    :
          :  Broyden damping             0.4000000          :
          :  net charge                          0          :
          :  unpaired electrons                  0          :
          ...................................................

 iter      E             dE          RMSdq      gap      omega  full diag
   1    -40.1415952 -0.401416E+02  0.478E+00    2.44       0.0  T
   2    -40.1593774 -0.177822E-01  0.284E+00    2.44       1.0  T
   3    -40.1495792  0.979816E-02  0.747E-01    2.43       1.0  T
   4    -40.1616664 -0.120871E-01  0.206E-01    2.43       1.0  T
   5    -40.1626331 -0.966783E-03  0.461E-02    2.43       1.0  T
   6    -40.1626608 -0.276061E-04  0.235E-02    2.43       1.0  T
   7    -40.1626614 -0.638305E-06  0.401E-03    2.43       4.9  T
   8    -40.1626617 -0.261380E-06  0.774E-04    2.43      25.3  T
   9    -40.1626617 -0.106116E-07  0.288E-04    2.43      68.2  T

   *** convergence criteria satisfied after 9 iterations ***

         #    Occupation            Energy/Eh            Energy/eV
      -------------------------------------------------------------
         1        2.0000           -0.6531980             -17.7744
       ...           ...                  ...                  ...
        31        2.0000           -0.4313729             -11.7383
        32        2.0000           -0.4171946             -11.3524
        33        2.0000           -0.4075344             -11.0896
        34        2.0000           -0.4049258             -11.0186
        35        2.0000           -0.4035585             -10.9814
        36        2.0000           -0.3898938             -10.6096
        37        2.0000           -0.3645341              -9.9195 (HOMO)
        38                         -0.2752619              -7.4903 (LUMO)
        39                         -0.2403597              -6.5405
        40                         -0.2195531              -5.9743
        41                         -0.1997005              -5.4341
        42                         -0.1795472              -4.8857
       ...                                ...                  ...
        74                          0.7327663              19.9396
      -------------------------------------------------------------
                  HL-Gap            0.0892722 Eh            2.4292 eV
             Fermi-level           -0.3198980 Eh           -8.7049 eV

 SCC (total)                   0 d,  0 h,  0 min,  0.017 sec
 SCC setup                      ...        0 min,  0.000 sec (  0.807%)
 Dispersion                     ...        0 min,  0.000 sec (  0.943%)
 classical contributions        ...        0 min,  0.000 sec (  0.131%)
 integral evaluation            ...        0 min,  0.002 sec ( 14.280%)
 iterations                     ...        0 min,  0.008 sec ( 45.293%)
 molecular gradient             ...        0 min,  0.006 sec ( 37.625%)
 printout                       ...        0 min,  0.000 sec (  0.831%)

         :::::::::::::::::::::::::::::::::::::::::::::::::::::
         ::                     SUMMARY                     ::
         :::::::::::::::::::::::::::::::::::::::::::::::::::::
         :: total energy             -39.379139539699 Eh    ::
         :: gradient norm              0.000156956868 Eh/a0 ::
         :: HOMO-LUMO gap              2.429220796802 eV    ::
         ::.................................................::
         :: SCC energy               -40.162536442589 Eh    ::
         :: -> isotropic ES            0.001299106526 Eh    ::
         :: -> anisotropic ES          0.003968597492 Eh    ::
         :: -> anisotropic XC          0.023328822291 Eh    ::
         :: -> dispersion             -0.031441048156 Eh    ::
         :: repulsion energy           0.783396902889 Eh    ::
         :: add. restraining           0.000000000000 Eh    ::
         :: total charge              -0.000000000000 e     ::
         :::::::::::::::::::::::::::::::::::::::::::::::::::::

           -------------------------------------------------
          |                Property Printout                |
           -------------------------------------------------

    * Orbital Energies and Occupations

         #    Occupation            Energy/Eh            Energy/eV
      -------------------------------------------------------------
         1        2.0000           -0.6531980             -17.7744
       ...           ...                  ...                  ...
        25        2.0000           -0.4615655             -12.5598
        26        2.0000           -0.4600196             -12.5178
        27        2.0000           -0.4572827             -12.4433
        28        2.0000           -0.4546574             -12.3719
        29        2.0000           -0.4369363             -11.8896
        30        2.0000           -0.4347836             -11.8311
        31        2.0000           -0.4313729             -11.7383
        32        2.0000           -0.4171946             -11.3524
        33        2.0000           -0.4075344             -11.0896
        34        2.0000           -0.4049258             -11.0186
        35        2.0000           -0.4035585             -10.9814
        36        2.0000           -0.3898938             -10.6096
        37        2.0000           -0.3645341              -9.9195 (HOMO)
        38                         -0.2752619              -7.4903 (LUMO)
        39                         -0.2403597              -6.5405
        40                         -0.2195531              -5.9743
        41                         -0.1997005              -5.4341
        42                         -0.1795472              -4.8857
        43                         -0.1246723              -3.3925
        44                         -0.0978507              -2.6627
        45                         -0.0239219              -0.6509
        46                          0.0997888               2.7154
        47                          0.1133219               3.0836
        48                          0.1270250               3.4565
       ...                                ...                  ...
        74                          0.7327663              19.9396
      -------------------------------------------------------------
                  HL-Gap            0.0892722 Eh            2.4292 eV
             Fermi-level           -0.3198980 Eh           -8.7049 eV

     #   Z          covCN         q      C6AA      α(0)
     1   6 c        2.914    -0.030    28.760     8.794
     2   6 c        2.920    -0.037    28.917     8.818
     3   6 c        2.982     0.011    27.754     8.642
     4   6 c        2.913    -0.036    28.895     8.815
     5   6 c        2.913    -0.036    28.895     8.815
     6   6 c        2.982     0.011    27.754     8.642
     7   6 c        2.920    -0.037    28.917     8.818
     8   6 c        2.914    -0.030    28.760     8.794
     9   6 c        2.920    -0.037    28.917     8.818
    10   6 c        2.982     0.011    27.754     8.642
    11   6 c        2.913    -0.036    28.895     8.815
    12   6 c        2.913    -0.036    28.895     8.815
    13   6 c        2.982     0.011    27.754     8.642
    14   6 c        2.920    -0.037    28.917     8.818
    15   6 c        2.998     0.003    27.942     8.671
    16   6 c        2.998     0.003    27.942     8.671
    17   1 h        0.926     0.029     2.597     2.520
    18   1 h        0.926     0.030     2.585     2.514
    19   1 h        0.926     0.030     2.581     2.513
    20   1 h        0.926     0.030     2.581     2.513
    21   1 h        0.926     0.030     2.585     2.514
    22   1 h        0.926     0.029     2.597     2.520
    23   1 h        0.926     0.030     2.585     2.514
    24   1 h        0.926     0.030     2.581     2.513
    25   1 h        0.926     0.030     2.581     2.513
    26   1 h        0.926     0.030     2.585     2.514

 Mol. C6AA /au·bohr⁶  :      10291.115719
 Mol. C8AA /au·bohr⁸  :     265245.906878
 Mol. α(0) /au        :        165.175805


Wiberg/Mayer (AO) data.
largest (>0.10) Wiberg bond orders for each atom

 ---------------------------------------------------------------------------
     #   Z sym  total        # sym  WBO       # sym  WBO       # sym  WBO
 ---------------------------------------------------------------------------
     1   6 c    3.985 --    14 c    1.443     2 c    1.443    17 h    0.971
     2   6 c    3.957 --     1 c    1.443     3 c    1.358    18 h    0.969
     3   6 c    3.990 --     2 c    1.358    15 c    1.253     4 c    1.199
     4   6 c    3.991 --     5 c    1.657     3 c    1.199    19 h    0.968
     5   6 c    3.991 --     4 c    1.657     6 c    1.199    20 h    0.968
     6   6 c    3.990 --     7 c    1.358    16 c    1.253     5 c    1.199
     7   6 c    3.957 --     8 c    1.443     6 c    1.358    21 h    0.969
     8   6 c    3.985 --     7 c    1.443     9 c    1.443    22 h    0.971
     9   6 c    3.957 --     8 c    1.443    10 c    1.358    23 h    0.969
    10   6 c    3.990 --     9 c    1.358    16 c    1.253    11 c    1.199
    11   6 c    3.991 --    12 c    1.657    10 c    1.199    24 h    0.968
    12   6 c    3.991 --    11 c    1.657    13 c    1.199    25 h    0.968
    13   6 c    3.990 --    14 c    1.358    15 c    1.253    12 c    1.199
    14   6 c    3.957 --     1 c    1.443    13 c    1.358    26 h    0.969
    15   6 c    3.991 --     3 c    1.253    13 c    1.253    16 c    1.252
    16   6 c    3.991 --    10 c    1.253     6 c    1.253    15 c    1.252
    17   1 h    0.998 --     1 c    0.971
    18   1 h    0.998 --     2 c    0.969
    19   1 h    0.998 --     4 c    0.968
    20   1 h    0.998 --     5 c    0.968
    21   1 h    0.998 --     7 c    0.969
    22   1 h    0.998 --     8 c    0.971
    23   1 h    0.998 --     9 c    0.969
    24   1 h    0.998 --    11 c    0.968
    25   1 h    0.998 --    12 c    0.968
    26   1 h    0.998 --    14 c    0.969
 ---------------------------------------------------------------------------

Topologies differ in total number of bonds
Writing topology from bond orders to xtbtopo.mol

molecular dipole:
                 x           y           z       tot (Debye)
 q only:       -0.000       0.000      -0.000
   full:       -0.000      -0.000      -0.000       0.000
molecular quadrupole (traceless):
                xx          xy          yy          xz          yz          zz
 q only:        1.475      -0.015       1.671       0.329       0.539      -3.146
  q+dip:        6.450      -0.164       6.141       1.345       2.091     -12.591
   full:        2.926      -0.046       3.120       0.638       1.025      -6.045


           -------------------------------------------------
          | TOTAL ENERGY              -39.379139539699 Eh   |
          | GRADIENT NORM               0.000156956868 Eh/α |
          | HOMO-LUMO GAP               2.429220796802 eV   |
           -------------------------------------------------

------------------------------------------------------------------------
 * finished run on 2026/08/29 at 13:17:57.174     
------------------------------------------------------------------------
 total:
 * wall-time:     0 d,  0 h,  0 min,  0.026 sec
 *  cpu-time:     0 d,  0 h,  0 min,  0.026 sec
 * ratio c/w:     0.979 speedup
 SCF:
 * wall-time:     0 d,  0 h,  0 min,  0.017 sec
 *  cpu-time:     0 d,  0 h,  0 min,  0.016 sec
 * ratio c/w:     0.976 speedup

