26
RDKit ETKDGv3/MMFF94s selected conformer
C   3.491127054346 -0.344979633571  0.207708356868
C   2.689688636837 -1.471762856705  0.026987380074
C   1.294820338300 -1.350504963236 -0.057831778676
C   0.473318086783 -2.471340569766 -0.239330492803
C  -0.914794346249 -2.334173006440 -0.321908740533
C  -1.517426486436 -1.072608654339 -0.225147885735
C  -2.909274604739 -0.918491480989 -0.306127308465
C  -3.491122196092  0.344982006833 -0.207708151045
C  -2.689683728685  1.471764342212 -0.026990100475
C  -1.294818074472  1.350501565762  0.057828811160
C  -0.473320410752  2.471337136517  0.239324060822
C   0.914790018851  2.334170793974  0.321906022308
C   1.517427025524  1.072607933805  0.225151865555
C   2.909276404486  0.918494218899  0.306127854974
C   0.703842394493 -0.069552916697  0.041882815023
C  -0.703839838372  0.069549486011 -0.041876386298
H   4.570873459308 -0.451673436808  0.271949801847
H   3.163168845283 -2.448131160508 -0.047400717603
H   0.908002701032 -3.465276719387 -0.318365168859
H  -1.522641243933 -3.225086407669 -0.462981351203
H  -3.552025868190 -1.784549610076 -0.446931324064
H  -4.570868655470  0.451666855496 -0.271950455203
H  -3.163160064668  2.448134691712  0.047404879999
H  -0.908003814918  3.465272518111  0.318365451324
H   1.522625410409  3.225090675135  0.462982125032
H   3.552018957323  1.784559191726  0.446930435977
