      -----------------------------------------------------------      
     |                   =====================                   |     
     |                           x T B                           |     
     |                   =====================                   |     
     |                         S. Grimme                         |     
     |          Mulliken Center for Theoretical Chemistry        |     
     |                    University of Bonn                     |     
      -----------------------------------------------------------      

   * xtb version 6.7.1 (edcfbbe) compiled by 'albert@albert-system' on 2024-07-22

   xtb is free software: you can redistribute it and/or modify it under
   the terms of the GNU Lesser General Public License as published by
   the Free Software Foundation, either version 3 of the License, or
   (at your option) any later version.
   
   xtb is distributed in the hope that it will be useful,
   but WITHOUT ANY WARRANTY; without even the implied warranty of
   MERCHANTABILITY or FITNESS FOR A PARTICULAR PURPOSE.  See the
   GNU Lesser General Public License for more details.
   
   Cite this work as:
   * C. Bannwarth, E. Caldeweyher, S. Ehlert, A. Hansen, P. Pracht,
     J. Seibert, S. Spicher, S. Grimme, WIREs Comput. Mol. Sci., 2020, 11,
     e01493. DOI: 10.1002/wcms.1493
   
   for GFN2-xTB:
   * C. Bannwarth, S. Ehlert and S. Grimme., J. Chem. Theory Comput., 2019,
     15, 1652-1671. DOI: 10.1021/acs.jctc.8b01176
   for GFN1-xTB:
   * S. Grimme, C. Bannwarth, P. Shushkov, J. Chem. Theory Comput., 2017,
     13, 1989-2009. DOI: 10.1021/acs.jctc.7b00118
   for GFN0-xTB:
   * P. Pracht, E. Caldeweyher, S. Ehlert, S. Grimme, ChemRxiv, 2019, preprint.
     DOI: 10.26434/chemrxiv.8326202.v1
   for GFN-FF:
   * S. Spicher and S. Grimme, Angew. Chem. Int. Ed., 2020, 59, 15665-15673.
     DOI: 10.1002/anie.202004239
   
   for ALPB and GBSA implicit solvation:
   * S. Ehlert, M. Stahn, S. Spicher, S. Grimme, J. Chem. Theory Comput.,
     2021, 17, 4250-4261. DOI: 10.1021/acs.jctc.1c00471
   
   for ddCOSMO and CPCM-X implicit solvation:
   * M. Stahn, S. Ehlert, S. Grimme, J. Phys. Chem. A,
     2023, XX, XXXX-XXXX. DOI: 10.1021/acs.jpca.3c04382
   
   for DFT-D4:
   * E. Caldeweyher, C. Bannwarth and S. Grimme, J. Chem. Phys., 2017,
     147, 034112. DOI: 10.1063/1.4993215
   * E. Caldeweyher, S. Ehlert, A. Hansen, H. Neugebauer, S. Spicher,
     C. Bannwarth and S. Grimme, J. Chem. Phys., 2019, 150, 154122.
     DOI: 10.1063/1.5090222
   * E. Caldeweyher, J.-M. Mewes, S. Ehlert and S. Grimme, Phys. Chem. Chem. Phys.
     2020, 22, 8499-8512. DOI: 10.1039/D0CP00502A
   
   for sTDA-xTB:
   * S. Grimme and C. Bannwarth, J. Chem. Phys., 2016, 145, 054103.
     DOI: 10.1063/1.4959605
   
   in the mass-spec context:
   * V. Asgeirsson, C. Bauer and S. Grimme, Chem. Sci., 2017, 8, 4879.
     DOI: 10.1039/c7sc00601b
   * J. Koopman and S. Grimme, ACS Omega 2019, 4, 12, 15120-15133.
     DOI: 10.1021/acsomega.9b02011
   
   for metadynamics refer to:
   * S. Grimme, J. Chem. Theory Comput., 2019, 155, 2847-2862
     DOI: 10.1021/acs.jctc.9b00143
   
   for SPH calculations refer to:
   * S. Spicher and S. Grimme, J. Chem. Theory Comput., 2021, 17, 1701-1714
     DOI: 10.1021/acs.jctc.0c01306
   
   for ONIOM refer to:
   * C. Plett, A. Katbashev, S. Ehlert, S. Grimme, M. Bursch,
     Phys. Chem. Chem. Phys., 2023, 25, 17860-17868. DOI: 10.1039/D3CP02178E
   
   for DIPRO refer to:
   * J. Kohn, N. Gildemeister, S. Grimme, D. Fazzi, A. Hansen,
     J. Chem. Phys., 2023, just accepted.
   
   for PTB refer to:
   * S. Grimme, M. Mueller, A. Hansen, J. Chem. Phys., 2023, 158, 124111.
     DOI: 10.1063/5.0137838
   
   with help from (in alphabetical order)
   P. Atkinson, C. Bannwarth, F. Bohle, G. Brandenburg, E. Caldeweyher
   M. Checinski, S. Dohm, S. Ehlert, S. Ehrlich, I. Gerasimov, C. Hölzer
   A. Katbashev, J. Kohn, J. Koopman, C. Lavigne, S. Lehtola, F. März, M. Müller,
   F. Musil, H. Neugebauer, J. Pisarek, C. Plett, P. Pracht, F. Pultar,
   J. Seibert, P. Shushkov, S. Spicher, M. Stahn, M. Steiner, T. Strunk,
   J. Stückrath, T. Rose, and J. Unsleber
   
 * started run on 2026/08/29 at 13:17:57.179     
   ID    Z sym.   atoms
    1    6 c      1-16
    2    1 h      17-26

           -------------------------------------------------
          |                Calculation Setup                |
           -------------------------------------------------

          program call               : xtb coord --gfn 2 --cosmo inf --norestart
          coordinate file            : coord
          omp threads                :                     1


           -------------------------------------------------
          |                 G F N 2 - x T B                 |
           -------------------------------------------------

        Reference                      10.1021/acs.jctc.8b01176
      * Hamiltonian:
        H0-scaling (s, p, d)           1.850000    2.230000    2.230000
        zeta-weighting                 0.500000
      * Dispersion:
        s8                             2.700000
        a1                             0.520000
        a2                             5.000000
        s9                             5.000000
      * Repulsion:
        kExp                           1.500000    1.000000
        rExp                           1.000000
      * Coulomb:
        alpha                          2.000000
        third order                    shell-resolved
        anisotropic                    true
        a3                             3.000000
        a5                             4.000000
        cn-shift                       1.200000
        cn-exp                         4.000000
        max-rad                        5.000000

      * Solvation model:               COSMO
        Solvent                        inf
        Parameter file                 internal GFN-xTB/COSMO
        Dielectric constant                  Infinity
        Reference state                gsolv [1 M gas/solution]
        Free energy shift                  0.0000E+00 Eh       0.0000E+00 kcal/mol
        Temperature                        2.9815E+02 K
        Density                            1.0000E+00 kg/L
        Solvent mass                       1.8000E+01 g/mol
        vdW Radii scaling                  1.0000E+00
        Surface tension                    1.0000E-05 Eh       1.5569E+01 dyn/cm
        Grid points                               230 per atom

          ...................................................
          :                      SETUP                      :
          :.................................................:
          :  # basis functions                  74          :
          :  # atomic orbitals                  74          :
          :  # shells                           42          :
          :  # electrons                        74          :
          :  max. iterations                   250          :
          :  Hamiltonian                  GFN2-xTB          :
          :  restarted?                      false          :
          :  GBSA solvation                   true          :
          :  PC potential                    false          :
          :  electronic temp.          300.0000000     K    :
          :  accuracy                    1.0000000          :
          :  -> integral cutoff          0.2500000E+02      :
          :  -> integral neglect         0.1000000E-07      :
          :  -> SCF convergence          0.1000000E-05 Eh   :
          :  -> wf. convergence          0.1000000E-03 e    :
          :  Broyden damping             0.4000000          :
          :  net charge                          0          :
          :  unpaired electrons                  0          :
          ...................................................

 iter      E             dE          RMSdq      gap      omega  full diag
   1    -40.1530208 -0.401530E+02  0.480E+00    2.44       0.0  T
   2    -40.1665551 -0.135343E-01  0.285E+00    2.44       1.0  T
   3    -40.1469084  0.196467E-01  0.950E-01    2.44       1.0  T
   4    -40.1688713 -0.219629E-01  0.132E-01    2.43       1.0  T
   5    -40.1692950 -0.423646E-03  0.348E-02    2.43       1.0  T
   6    -40.1693512 -0.562403E-04  0.171E-02    2.43       1.1  T
   7    -40.1693558 -0.463509E-05  0.682E-03    2.43       2.9  T
   8    -40.1693588 -0.296542E-05  0.843E-04    2.43      23.3  T
   9    -40.1693581  0.680936E-06  0.298E-04    2.43      65.8  T
  10    -40.1693582 -0.491416E-07  0.152E-04    2.43     128.7  T

   *** convergence criteria satisfied after 10 iterations ***

         #    Occupation            Energy/Eh            Energy/eV
      -------------------------------------------------------------
         1        2.0000           -0.6540321             -17.7971
       ...           ...                  ...                  ...
        31        2.0000           -0.4318651             -11.7516
        32        2.0000           -0.4178687             -11.3708
        33        2.0000           -0.4079367             -11.1005
        34        2.0000           -0.4056302             -11.0378
        35        2.0000           -0.4038725             -10.9899
        36        2.0000           -0.3905787             -10.6282
        37        2.0000           -0.3650466              -9.9334 (HOMO)
        38                         -0.2757754              -7.5042 (LUMO)
        39                         -0.2410412              -6.5591
        40                         -0.2202602              -5.9936
        41                         -0.2004178              -5.4536
        42                         -0.1800453              -4.8993
       ...                                ...                  ...
        74                          0.7320680              19.9206
      -------------------------------------------------------------
                  HL-Gap            0.0892712 Eh            2.4292 eV
             Fermi-level           -0.3204110 Eh           -8.7188 eV

 SCC (total)                   0 d,  0 h,  0 min,  0.221 sec
 SCC setup                      ...        0 min,  0.001 sec (  0.411%)
 Dispersion                     ...        0 min,  0.000 sec (  0.060%)
 classical contributions        ...        0 min,  0.000 sec (  0.010%)
 integral evaluation            ...        0 min,  0.003 sec (  1.144%)
 iterations                     ...        0 min,  0.197 sec ( 89.043%)
 molecular gradient             ...        0 min,  0.017 sec (  7.839%)
 printout                       ...        0 min,  0.003 sec (  1.484%)

         :::::::::::::::::::::::::::::::::::::::::::::::::::::
         ::                     SUMMARY                     ::
         :::::::::::::::::::::::::::::::::::::::::::::::::::::
         :: total energy             -39.385836043049 Eh    ::
         :: total w/o Gsasa/hb       -39.379570195869 Eh    ::
         :: gradient norm              0.001075065993 Eh/a0 ::
         :: HOMO-LUMO gap              2.429192582543 eV    ::
         ::.................................................::
         :: SCC energy               -40.169232945938 Eh    ::
         :: -> isotropic ES            0.001678956395 Eh    ::
         :: -> anisotropic ES          0.004140329158 Eh    ::
         :: -> anisotropic XC          0.023346018965 Eh    ::
         :: -> dispersion             -0.031402013484 Eh    ::
         :: -> Gsolv                  -0.006788729044 Eh    ::
         ::    -> Gelec               -0.000522881863 Eh    ::
         ::    -> Gsasa               -0.006265847180 Eh    ::
         ::    -> Ghb                  0.000000000000 Eh    ::
         ::    -> Gshift               0.000000000000 Eh    ::
         :: repulsion energy           0.783396902889 Eh    ::
         :: add. restraining           0.000000000000 Eh    ::
         :: total charge              -0.000000000000 e     ::
         :::::::::::::::::::::::::::::::::::::::::::::::::::::

           -------------------------------------------------
          |                Property Printout                |
           -------------------------------------------------

    * Orbital Energies and Occupations

         #    Occupation            Energy/Eh            Energy/eV
      -------------------------------------------------------------
         1        2.0000           -0.6540321             -17.7971
       ...           ...                  ...                  ...
        25        2.0000           -0.4615348             -12.5590
        26        2.0000           -0.4605800             -12.5330
        27        2.0000           -0.4574808             -12.4487
        28        2.0000           -0.4545637             -12.3693
        29        2.0000           -0.4370369             -11.8924
        30        2.0000           -0.4350018             -11.8370
        31        2.0000           -0.4318651             -11.7516
        32        2.0000           -0.4178687             -11.3708
        33        2.0000           -0.4079367             -11.1005
        34        2.0000           -0.4056302             -11.0378
        35        2.0000           -0.4038725             -10.9899
        36        2.0000           -0.3905787             -10.6282
        37        2.0000           -0.3650466              -9.9334 (HOMO)
        38                         -0.2757754              -7.5042 (LUMO)
        39                         -0.2410412              -6.5591
        40                         -0.2202602              -5.9936
        41                         -0.2004178              -5.4536
        42                         -0.1800453              -4.8993
        43                         -0.1252760              -3.4089
        44                         -0.0985048              -2.6805
        45                         -0.0247708              -0.6740
        46                          0.0994137               2.7052
        47                          0.1135030               3.0886
        48                          0.1270101               3.4561
       ...                                ...                  ...
        74                          0.7320680              19.9206
      -------------------------------------------------------------
                  HL-Gap            0.0892712 Eh            2.4292 eV
             Fermi-level           -0.3204110 Eh           -8.7188 eV

     #   Z          covCN         q      C6AA      α(0)
     1   6 c        2.914    -0.033    28.815     8.802
     2   6 c        2.920    -0.039    28.978     8.828
     3   6 c        2.982     0.009    27.819     8.652
     4   6 c        2.913    -0.038    28.957     8.824
     5   6 c        2.913    -0.038    28.956     8.824
     6   6 c        2.982     0.009    27.821     8.652
     7   6 c        2.920    -0.039    28.977     8.827
     8   6 c        2.914    -0.033    28.815     8.802
     9   6 c        2.920    -0.039    28.978     8.828
    10   6 c        2.982     0.009    27.819     8.652
    11   6 c        2.913    -0.038    28.957     8.824
    12   6 c        2.913    -0.038    28.956     8.824
    13   6 c        2.982     0.009    27.821     8.652
    14   6 c        2.920    -0.039    28.977     8.827
    15   6 c        2.998    -0.000    28.026     8.684
    16   6 c        2.998    -0.000    28.026     8.684
    17   1 h        0.926     0.033     2.543     2.494
    18   1 h        0.926     0.034     2.525     2.485
    19   1 h        0.926     0.035     2.518     2.482
    20   1 h        0.926     0.035     2.519     2.482
    21   1 h        0.926     0.034     2.526     2.485
    22   1 h        0.926     0.033     2.543     2.494
    23   1 h        0.926     0.034     2.525     2.485
    24   1 h        0.926     0.035     2.518     2.482
    25   1 h        0.926     0.035     2.519     2.482
    26   1 h        0.926     0.034     2.526     2.485

 Mol. C6AA /au·bohr⁶  :      10272.745871
 Mol. C8AA /au·bohr⁸  :     265110.125970
 Mol. α(0) /au        :        165.041227


Wiberg/Mayer (AO) data.
largest (>0.10) Wiberg bond orders for each atom

 ---------------------------------------------------------------------------
     #   Z sym  total        # sym  WBO       # sym  WBO       # sym  WBO
 ---------------------------------------------------------------------------
     1   6 c    3.985 --     2 c    1.443    14 c    1.443    17 h    0.970
     2   6 c    3.957 --     1 c    1.443     3 c    1.358    18 h    0.969
     3   6 c    3.990 --     2 c    1.358    15 c    1.253     4 c    1.199
     4   6 c    3.991 --     5 c    1.657     3 c    1.199    19 h    0.968
     5   6 c    3.991 --     4 c    1.657     6 c    1.199    20 h    0.968
     6   6 c    3.990 --     7 c    1.358    16 c    1.253     5 c    1.199
     7   6 c    3.957 --     8 c    1.443     6 c    1.358    21 h    0.969
     8   6 c    3.985 --     9 c    1.443     7 c    1.443    22 h    0.970
     9   6 c    3.957 --     8 c    1.443    10 c    1.358    23 h    0.969
    10   6 c    3.990 --     9 c    1.358    16 c    1.253    11 c    1.199
    11   6 c    3.991 --    12 c    1.657    10 c    1.199    24 h    0.968
    12   6 c    3.991 --    11 c    1.657    13 c    1.199    25 h    0.968
    13   6 c    3.990 --    14 c    1.358    15 c    1.253    12 c    1.199
    14   6 c    3.957 --     1 c    1.443    13 c    1.358    26 h    0.969
    15   6 c    3.990 --    13 c    1.253     3 c    1.253    16 c    1.252
    16   6 c    3.990 --     6 c    1.253    10 c    1.253    15 c    1.252
    17   1 h    0.998 --     1 c    0.970
    18   1 h    0.998 --     2 c    0.969
    19   1 h    0.997 --     4 c    0.968
    20   1 h    0.997 --     5 c    0.968
    21   1 h    0.998 --     7 c    0.969
    22   1 h    0.998 --     8 c    0.970
    23   1 h    0.998 --     9 c    0.969
    24   1 h    0.997 --    11 c    0.968
    25   1 h    0.997 --    12 c    0.968
    26   1 h    0.998 --    14 c    0.969
 ---------------------------------------------------------------------------

Topologies differ in total number of bonds
Writing topology from bond orders to xtbtopo.mol

molecular dipole:
                 x           y           z       tot (Debye)
 q only:        0.000      -0.000      -0.000
   full:        0.000      -0.000      -0.000       0.000
molecular quadrupole (traceless):
                xx          xy          yy          xz          yz          zz
 q only:        1.895      -0.040       1.962       0.408       0.650      -3.857
  q+dip:        6.744      -0.183       6.344       1.400       2.168     -13.088
   full:        3.221      -0.065       3.316       0.692       1.101      -6.536


           -------------------------------------------------
          | TOTAL ENERGY              -39.385836043049 Eh   |
          | GRADIENT NORM               0.001075065993 Eh/α |
          | HOMO-LUMO GAP               2.429192582543 eV   |
           -------------------------------------------------

------------------------------------------------------------------------
 * finished run on 2026/08/29 at 13:17:57.409     
------------------------------------------------------------------------
 total:
 * wall-time:     0 d,  0 h,  0 min,  0.230 sec
 *  cpu-time:     0 d,  0 h,  0 min,  0.229 sec
 * ratio c/w:     0.998 speedup
 SCF:
 * wall-time:     0 d,  0 h,  0 min,  0.221 sec
 *  cpu-time:     0 d,  0 h,  0 min,  0.221 sec
 * ratio c/w:     0.998 speedup

