      -----------------------------------------------------------      
     |                   =====================                   |     
     |                           x T B                           |     
     |                   =====================                   |     
     |                         S. Grimme                         |     
     |          Mulliken Center for Theoretical Chemistry        |     
     |                    University of Bonn                     |     
      -----------------------------------------------------------      

   * xtb version 6.7.1 (edcfbbe) compiled by 'albert@albert-system' on 2024-07-22

   xtb is free software: you can redistribute it and/or modify it under
   the terms of the GNU Lesser General Public License as published by
   the Free Software Foundation, either version 3 of the License, or
   (at your option) any later version.
   
   xtb is distributed in the hope that it will be useful,
   but WITHOUT ANY WARRANTY; without even the implied warranty of
   MERCHANTABILITY or FITNESS FOR A PARTICULAR PURPOSE.  See the
   GNU Lesser General Public License for more details.
   
   Cite this work as:
   * C. Bannwarth, E. Caldeweyher, S. Ehlert, A. Hansen, P. Pracht,
     J. Seibert, S. Spicher, S. Grimme, WIREs Comput. Mol. Sci., 2020, 11,
     e01493. DOI: 10.1002/wcms.1493
   
   for GFN2-xTB:
   * C. Bannwarth, S. Ehlert and S. Grimme., J. Chem. Theory Comput., 2019,
     15, 1652-1671. DOI: 10.1021/acs.jctc.8b01176
   for GFN1-xTB:
   * S. Grimme, C. Bannwarth, P. Shushkov, J. Chem. Theory Comput., 2017,
     13, 1989-2009. DOI: 10.1021/acs.jctc.7b00118
   for GFN0-xTB:
   * P. Pracht, E. Caldeweyher, S. Ehlert, S. Grimme, ChemRxiv, 2019, preprint.
     DOI: 10.26434/chemrxiv.8326202.v1
   for GFN-FF:
   * S. Spicher and S. Grimme, Angew. Chem. Int. Ed., 2020, 59, 15665-15673.
     DOI: 10.1002/anie.202004239
   
   for ALPB and GBSA implicit solvation:
   * S. Ehlert, M. Stahn, S. Spicher, S. Grimme, J. Chem. Theory Comput.,
     2021, 17, 4250-4261. DOI: 10.1021/acs.jctc.1c00471
   
   for ddCOSMO and CPCM-X implicit solvation:
   * M. Stahn, S. Ehlert, S. Grimme, J. Phys. Chem. A,
     2023, XX, XXXX-XXXX. DOI: 10.1021/acs.jpca.3c04382
   
   for DFT-D4:
   * E. Caldeweyher, C. Bannwarth and S. Grimme, J. Chem. Phys., 2017,
     147, 034112. DOI: 10.1063/1.4993215
   * E. Caldeweyher, S. Ehlert, A. Hansen, H. Neugebauer, S. Spicher,
     C. Bannwarth and S. Grimme, J. Chem. Phys., 2019, 150, 154122.
     DOI: 10.1063/1.5090222
   * E. Caldeweyher, J.-M. Mewes, S. Ehlert and S. Grimme, Phys. Chem. Chem. Phys.
     2020, 22, 8499-8512. DOI: 10.1039/D0CP00502A
   
   for sTDA-xTB:
   * S. Grimme and C. Bannwarth, J. Chem. Phys., 2016, 145, 054103.
     DOI: 10.1063/1.4959605
   
   in the mass-spec context:
   * V. Asgeirsson, C. Bauer and S. Grimme, Chem. Sci., 2017, 8, 4879.
     DOI: 10.1039/c7sc00601b
   * J. Koopman and S. Grimme, ACS Omega 2019, 4, 12, 15120-15133.
     DOI: 10.1021/acsomega.9b02011
   
   for metadynamics refer to:
   * S. Grimme, J. Chem. Theory Comput., 2019, 155, 2847-2862
     DOI: 10.1021/acs.jctc.9b00143
   
   for SPH calculations refer to:
   * S. Spicher and S. Grimme, J. Chem. Theory Comput., 2021, 17, 1701-1714
     DOI: 10.1021/acs.jctc.0c01306
   
   for ONIOM refer to:
   * C. Plett, A. Katbashev, S. Ehlert, S. Grimme, M. Bursch,
     Phys. Chem. Chem. Phys., 2023, 25, 17860-17868. DOI: 10.1039/D3CP02178E
   
   for DIPRO refer to:
   * J. Kohn, N. Gildemeister, S. Grimme, D. Fazzi, A. Hansen,
     J. Chem. Phys., 2023, just accepted.
   
   for PTB refer to:
   * S. Grimme, M. Mueller, A. Hansen, J. Chem. Phys., 2023, 158, 124111.
     DOI: 10.1063/5.0137838
   
   with help from (in alphabetical order)
   P. Atkinson, C. Bannwarth, F. Bohle, G. Brandenburg, E. Caldeweyher
   M. Checinski, S. Dohm, S. Ehlert, S. Ehrlich, I. Gerasimov, C. Hölzer
   A. Katbashev, J. Kohn, J. Koopman, C. Lavigne, S. Lehtola, F. März, M. Müller,
   F. Musil, H. Neugebauer, J. Pisarek, C. Plett, P. Pracht, F. Pultar,
   J. Seibert, P. Shushkov, S. Spicher, M. Stahn, M. Steiner, T. Strunk,
   J. Stückrath, T. Rose, and J. Unsleber
   
 * started run on 2026/08/29 at 13:17:55.497     
   ID    Z sym.   atoms
    1    6 c      1-12
    2    1 h      13-38

           -------------------------------------------------
          |                Calculation Setup                |
           -------------------------------------------------

          program call               : xtb coord --gfn 2 --norestart
          coordinate file            : coord
          omp threads                :                     1


           -------------------------------------------------
          |                 G F N 2 - x T B                 |
           -------------------------------------------------

        Reference                      10.1021/acs.jctc.8b01176
      * Hamiltonian:
        H0-scaling (s, p, d)           1.850000    2.230000    2.230000
        zeta-weighting                 0.500000
      * Dispersion:
        s8                             2.700000
        a1                             0.520000
        a2                             5.000000
        s9                             5.000000
      * Repulsion:
        kExp                           1.500000    1.000000
        rExp                           1.000000
      * Coulomb:
        alpha                          2.000000
        third order                    shell-resolved
        anisotropic                    true
        a3                             3.000000
        a5                             4.000000
        cn-shift                       1.200000
        cn-exp                         4.000000
        max-rad                        5.000000


          ...................................................
          :                      SETUP                      :
          :.................................................:
          :  # basis functions                  74          :
          :  # atomic orbitals                  74          :
          :  # shells                           50          :
          :  # electrons                        74          :
          :  max. iterations                   250          :
          :  Hamiltonian                  GFN2-xTB          :
          :  restarted?                      false          :
          :  GBSA solvation                  false          :
          :  PC potential                    false          :
          :  electronic temp.          300.0000000     K    :
          :  accuracy                    1.0000000          :
          :  -> integral cutoff          0.2500000E+02      :
          :  -> integral neglect         0.1000000E-07      :
          :  -> SCF convergence          0.1000000E-05 Eh   :
          :  -> wf. convergence          0.1000000E-03 e    :
          :  Broyden damping             0.4000000          :
          :  net charge                          0          :
          :  unpaired electrons                  0          :
          ...................................................

 iter      E             dE          RMSdq      gap      omega  full diag
   1    -39.4621665 -0.394622E+02  0.260E+00   12.33       0.0  T
   2    -39.5618760 -0.997095E-01  0.144E+00   12.34       1.0  T
   3    -39.5633100 -0.143404E-02  0.743E-01   12.35       1.0  T
   4    -39.5635843 -0.274289E-03  0.830E-02   12.38       1.0  T
   5    -39.5635931 -0.881434E-05  0.434E-02   12.38       1.0  T
   6    -39.5635952 -0.207990E-05  0.224E-03   12.37       7.3  T
   7    -39.5635952 -0.661113E-07  0.970E-04   12.37      16.7  T
   8    -39.5635952 -0.269201E-08  0.283E-04   12.37      57.3  T

   *** convergence criteria satisfied after 8 iterations ***

         #    Occupation            Energy/Eh            Energy/eV
      -------------------------------------------------------------
         1        2.0000           -0.6230914             -16.9552
       ...           ...                  ...                  ...
        31        2.0000           -0.4284046             -11.6575
        32        2.0000           -0.4244288             -11.5493
        33        2.0000           -0.4208705             -11.4525
        34        2.0000           -0.4182289             -11.3806
        35        2.0000           -0.4170455             -11.3484
        36        2.0000           -0.4123351             -11.2202
        37        2.0000           -0.4110555             -11.1854 (HOMO)
        38                          0.0437146               1.1895 (LUMO)
        39                          0.0623331               1.6962
        40                          0.1061661               2.8889
        41                          0.1082902               2.9467
        42                          0.1136837               3.0935
       ...                                ...                  ...
        74                          0.3255680               8.8592
      -------------------------------------------------------------
                  HL-Gap            0.4547701 Eh           12.3749 eV
             Fermi-level           -0.1836705 Eh           -4.9979 eV

 SCC (total)                   0 d,  0 h,  0 min,  0.017 sec
 SCC setup                      ...        0 min,  0.000 sec (  0.994%)
 Dispersion                     ...        0 min,  0.000 sec (  1.466%)
 classical contributions        ...        0 min,  0.000 sec (  0.241%)
 integral evaluation            ...        0 min,  0.002 sec ( 12.330%)
 iterations                     ...        0 min,  0.007 sec ( 42.961%)
 molecular gradient             ...        0 min,  0.007 sec ( 40.991%)
 printout                       ...        0 min,  0.000 sec (  0.923%)

         :::::::::::::::::::::::::::::::::::::::::::::::::::::
         ::                     SUMMARY                     ::
         :::::::::::::::::::::::::::::::::::::::::::::::::::::
         :: total energy             -38.979410016166 Eh    ::
         :: gradient norm              0.000101403373 Eh/a0 ::
         :: HOMO-LUMO gap             12.374923068416 eV    ::
         ::.................................................::
         :: SCC energy               -39.563792020584 Eh    ::
         :: -> isotropic ES            0.006667627846 Eh    ::
         :: -> anisotropic ES          0.012474952287 Eh    ::
         :: -> anisotropic XC          0.023720684831 Eh    ::
         :: -> dispersion             -0.024095888864 Eh    ::
         :: repulsion energy           0.584382004418 Eh    ::
         :: add. restraining           0.000000000000 Eh    ::
         :: total charge               0.000000000000 e     ::
         :::::::::::::::::::::::::::::::::::::::::::::::::::::

           -------------------------------------------------
          |                Property Printout                |
           -------------------------------------------------

    * Orbital Energies and Occupations

         #    Occupation            Energy/Eh            Energy/eV
      -------------------------------------------------------------
         1        2.0000           -0.6230914             -16.9552
       ...           ...                  ...                  ...
        25        2.0000           -0.4523018             -12.3078
        26        2.0000           -0.4472616             -12.1706
        27        2.0000           -0.4441679             -12.0864
        28        2.0000           -0.4369244             -11.8893
        29        2.0000           -0.4320133             -11.7557
        30        2.0000           -0.4300811             -11.7031
        31        2.0000           -0.4284046             -11.6575
        32        2.0000           -0.4244288             -11.5493
        33        2.0000           -0.4208705             -11.4525
        34        2.0000           -0.4182289             -11.3806
        35        2.0000           -0.4170455             -11.3484
        36        2.0000           -0.4123351             -11.2202
        37        2.0000           -0.4110555             -11.1854 (HOMO)
        38                          0.0437146               1.1895 (LUMO)
        39                          0.0623331               1.6962
        40                          0.1061661               2.8889
        41                          0.1082902               2.9467
        42                          0.1136837               3.0935
        43                          0.1163804               3.1669
        44                          0.1203024               3.2736
        45                          0.1272479               3.4626
        46                          0.1359567               3.6996
        47                          0.1402248               3.8157
        48                          0.1478472               4.0231
       ...                                ...                  ...
        74                          0.3255680               8.8592
      -------------------------------------------------------------
                  HL-Gap            0.4547701 Eh           12.3749 eV
             Fermi-level           -0.1836705 Eh           -4.9979 eV

     #   Z          covCN         q      C6AA      α(0)
     1   6 c        3.752    -0.102    22.509     6.766
     2   6 c        3.801    -0.053    21.521     6.605
     3   6 c        3.803    -0.059    21.636     6.622
     4   6 c        3.802    -0.059    21.632     6.622
     5   6 c        3.802    -0.058    21.615     6.619
     6   6 c        3.802    -0.058    21.617     6.620
     7   6 c        3.802    -0.059    21.629     6.621
     8   6 c        3.803    -0.058    21.620     6.620
     9   6 c        3.803    -0.058    21.620     6.620
    10   6 c        3.803    -0.059    21.633     6.622
    11   6 c        3.801    -0.053    21.523     6.605
    12   6 c        3.752    -0.102    22.510     6.766
    13   1 h        0.925     0.033     2.543     2.494
    14   1 h        0.925     0.032     2.552     2.498
    15   1 h        0.925     0.033     2.544     2.494
    16   1 h        0.924     0.028     2.612     2.527
    17   1 h        0.924     0.028     2.610     2.526
    18   1 h        0.924     0.029     2.603     2.523
    19   1 h        0.924     0.029     2.598     2.521
    20   1 h        0.924     0.029     2.600     2.522
    21   1 h        0.924     0.031     2.576     2.510
    22   1 h        0.924     0.029     2.595     2.519
    23   1 h        0.924     0.029     2.608     2.525
    24   1 h        0.924     0.029     2.596     2.519
    25   1 h        0.924     0.028     2.608     2.525
    26   1 h        0.924     0.031     2.570     2.507
    27   1 h        0.924     0.029     2.594     2.519
    28   1 h        0.924     0.028     2.613     2.528
    29   1 h        0.924     0.028     2.608     2.526
    30   1 h        0.924     0.028     2.609     2.526
    31   1 h        0.924     0.028     2.611     2.527
    32   1 h        0.924     0.030     2.592     2.518
    33   1 h        0.924     0.030     2.592     2.518
    34   1 h        0.924     0.028     2.609     2.526
    35   1 h        0.924     0.028     2.609     2.526
    36   1 h        0.925     0.033     2.542     2.493
    37   1 h        0.925     0.033     2.551     2.498
    38   1 h        0.925     0.033     2.542     2.493

 Mol. C6AA /au·bohr⁶  :       9534.125674
 Mol. C8AA /au·bohr⁸  :     198733.101111
 Mol. α(0) /au        :        145.114109


Wiberg/Mayer (AO) data.
largest (>0.10) Wiberg bond orders for each atom

 ---------------------------------------------------------------------------
     #   Z sym  total        # sym  WBO       # sym  WBO       # sym  WBO
 ---------------------------------------------------------------------------
     1   6 c    3.997 --     2 c    1.019    15 h    0.988    13 h    0.988
                            14 h    0.988
     2   6 c    3.998 --     1 c    1.019     3 c    1.008    17 h    0.979
                            16 h    0.979
     3   6 c    3.997 --     2 c    1.008     4 c    1.007    19 h    0.978
                            18 h    0.977
     4   6 c    3.998 --     5 c    1.008     3 c    1.007    20 h    0.977
                            21 h    0.976
     5   6 c    3.997 --     4 c    1.008     6 c    1.006    22 h    0.977
                            23 h    0.977
     6   6 c    3.997 --     7 c    1.008     5 c    1.006    24 h    0.977
                            25 h    0.977
     7   6 c    3.997 --     6 c    1.008     8 c    1.007    27 h    0.977
                            26 h    0.976
     8   6 c    3.997 --     9 c    1.007     7 c    1.007    29 h    0.978
                            28 h    0.977
     9   6 c    3.997 --    10 c    1.007     8 c    1.007    30 h    0.978
                            31 h    0.978
    10   6 c    3.997 --    11 c    1.008     9 c    1.007    32 h    0.978
                            33 h    0.978
    11   6 c    3.998 --    12 c    1.019    10 c    1.008    35 h    0.979
                            34 h    0.979
    12   6 c    3.997 --    11 c    1.019    38 h    0.988    36 h    0.988
                            37 h    0.988
    13   1 h    0.999 --     1 c    0.988
    14   1 h    0.999 --     1 c    0.988
    15   1 h    0.999 --     1 c    0.988
    16   1 h    0.999 --     2 c    0.979
    17   1 h    0.999 --     2 c    0.979
    18   1 h    0.999 --     3 c    0.977
    19   1 h    0.999 --     3 c    0.978
    20   1 h    0.999 --     4 c    0.977
    21   1 h    0.999 --     4 c    0.976
    22   1 h    0.999 --     5 c    0.977
    23   1 h    0.999 --     5 c    0.977
    24   1 h    0.999 --     6 c    0.977
    25   1 h    0.999 --     6 c    0.977
    26   1 h    0.999 --     7 c    0.976
    27   1 h    0.999 --     7 c    0.977
    28   1 h    0.999 --     8 c    0.977
    29   1 h    0.999 --     8 c    0.978
    30   1 h    0.999 --     9 c    0.978
    31   1 h    0.999 --     9 c    0.978
    32   1 h    0.999 --    10 c    0.978
    33   1 h    0.999 --    10 c    0.978
    34   1 h    0.999 --    11 c    0.979
    35   1 h    0.999 --    11 c    0.979
    36   1 h    0.999 --    12 c    0.988
    37   1 h    0.999 --    12 c    0.988
    38   1 h    0.999 --    12 c    0.988
 ---------------------------------------------------------------------------

Topologies differ in total number of bonds
Writing topology from bond orders to xtbtopo.mol

molecular dipole:
                 x           y           z       tot (Debye)
 q only:        0.000       0.002      -0.002
   full:        0.000      -0.000       0.000       0.001
molecular quadrupole (traceless):
                xx          xy          yy          xz          yz          zz
 q only:        0.629       0.170      -0.212       0.192      -0.121      -0.416
  q+dip:       -2.829      -0.568       0.834      -0.688       0.728       1.994
   full:       -1.142      -0.219       0.310      -0.274       0.323       0.832


           -------------------------------------------------
          | TOTAL ENERGY              -38.979410016166 Eh   |
          | GRADIENT NORM               0.000101403373 Eh/α |
          | HOMO-LUMO GAP              12.374923068416 eV   |
           -------------------------------------------------

------------------------------------------------------------------------
 * finished run on 2026/08/29 at 13:17:55.524     
------------------------------------------------------------------------
 total:
 * wall-time:     0 d,  0 h,  0 min,  0.026 sec
 *  cpu-time:     0 d,  0 h,  0 min,  0.025 sec
 * ratio c/w:     0.982 speedup
 SCF:
 * wall-time:     0 d,  0 h,  0 min,  0.017 sec
 *  cpu-time:     0 d,  0 h,  0 min,  0.017 sec
 * ratio c/w:     0.976 speedup

