      -----------------------------------------------------------      
     |                   =====================                   |     
     |                           x T B                           |     
     |                   =====================                   |     
     |                         S. Grimme                         |     
     |          Mulliken Center for Theoretical Chemistry        |     
     |                    University of Bonn                     |     
      -----------------------------------------------------------      

   * xtb version 6.7.1 (edcfbbe) compiled by 'albert@albert-system' on 2024-07-22

   xtb is free software: you can redistribute it and/or modify it under
   the terms of the GNU Lesser General Public License as published by
   the Free Software Foundation, either version 3 of the License, or
   (at your option) any later version.
   
   xtb is distributed in the hope that it will be useful,
   but WITHOUT ANY WARRANTY; without even the implied warranty of
   MERCHANTABILITY or FITNESS FOR A PARTICULAR PURPOSE.  See the
   GNU Lesser General Public License for more details.
   
   Cite this work as:
   * C. Bannwarth, E. Caldeweyher, S. Ehlert, A. Hansen, P. Pracht,
     J. Seibert, S. Spicher, S. Grimme, WIREs Comput. Mol. Sci., 2020, 11,
     e01493. DOI: 10.1002/wcms.1493
   
   for GFN2-xTB:
   * C. Bannwarth, S. Ehlert and S. Grimme., J. Chem. Theory Comput., 2019,
     15, 1652-1671. DOI: 10.1021/acs.jctc.8b01176
   for GFN1-xTB:
   * S. Grimme, C. Bannwarth, P. Shushkov, J. Chem. Theory Comput., 2017,
     13, 1989-2009. DOI: 10.1021/acs.jctc.7b00118
   for GFN0-xTB:
   * P. Pracht, E. Caldeweyher, S. Ehlert, S. Grimme, ChemRxiv, 2019, preprint.
     DOI: 10.26434/chemrxiv.8326202.v1
   for GFN-FF:
   * S. Spicher and S. Grimme, Angew. Chem. Int. Ed., 2020, 59, 15665-15673.
     DOI: 10.1002/anie.202004239
   
   for ALPB and GBSA implicit solvation:
   * S. Ehlert, M. Stahn, S. Spicher, S. Grimme, J. Chem. Theory Comput.,
     2021, 17, 4250-4261. DOI: 10.1021/acs.jctc.1c00471
   
   for ddCOSMO and CPCM-X implicit solvation:
   * M. Stahn, S. Ehlert, S. Grimme, J. Phys. Chem. A,
     2023, XX, XXXX-XXXX. DOI: 10.1021/acs.jpca.3c04382
   
   for DFT-D4:
   * E. Caldeweyher, C. Bannwarth and S. Grimme, J. Chem. Phys., 2017,
     147, 034112. DOI: 10.1063/1.4993215
   * E. Caldeweyher, S. Ehlert, A. Hansen, H. Neugebauer, S. Spicher,
     C. Bannwarth and S. Grimme, J. Chem. Phys., 2019, 150, 154122.
     DOI: 10.1063/1.5090222
   * E. Caldeweyher, J.-M. Mewes, S. Ehlert and S. Grimme, Phys. Chem. Chem. Phys.
     2020, 22, 8499-8512. DOI: 10.1039/D0CP00502A
   
   for sTDA-xTB:
   * S. Grimme and C. Bannwarth, J. Chem. Phys., 2016, 145, 054103.
     DOI: 10.1063/1.4959605
   
   in the mass-spec context:
   * V. Asgeirsson, C. Bauer and S. Grimme, Chem. Sci., 2017, 8, 4879.
     DOI: 10.1039/c7sc00601b
   * J. Koopman and S. Grimme, ACS Omega 2019, 4, 12, 15120-15133.
     DOI: 10.1021/acsomega.9b02011
   
   for metadynamics refer to:
   * S. Grimme, J. Chem. Theory Comput., 2019, 155, 2847-2862
     DOI: 10.1021/acs.jctc.9b00143
   
   for SPH calculations refer to:
   * S. Spicher and S. Grimme, J. Chem. Theory Comput., 2021, 17, 1701-1714
     DOI: 10.1021/acs.jctc.0c01306
   
   for ONIOM refer to:
   * C. Plett, A. Katbashev, S. Ehlert, S. Grimme, M. Bursch,
     Phys. Chem. Chem. Phys., 2023, 25, 17860-17868. DOI: 10.1039/D3CP02178E
   
   for DIPRO refer to:
   * J. Kohn, N. Gildemeister, S. Grimme, D. Fazzi, A. Hansen,
     J. Chem. Phys., 2023, just accepted.
   
   for PTB refer to:
   * S. Grimme, M. Mueller, A. Hansen, J. Chem. Phys., 2023, 158, 124111.
     DOI: 10.1063/5.0137838
   
   with help from (in alphabetical order)
   P. Atkinson, C. Bannwarth, F. Bohle, G. Brandenburg, E. Caldeweyher
   M. Checinski, S. Dohm, S. Ehlert, S. Ehrlich, I. Gerasimov, C. Hölzer
   A. Katbashev, J. Kohn, J. Koopman, C. Lavigne, S. Lehtola, F. März, M. Müller,
   F. Musil, H. Neugebauer, J. Pisarek, C. Plett, P. Pracht, F. Pultar,
   J. Seibert, P. Shushkov, S. Spicher, M. Stahn, M. Steiner, T. Strunk,
   J. Stückrath, T. Rose, and J. Unsleber
   
 * started run on 2026/08/29 at 13:17:55.528     
   ID    Z sym.   atoms
    1    6 c      1-12
    2    1 h      13-38

           -------------------------------------------------
          |                Calculation Setup                |
           -------------------------------------------------

          program call               : xtb coord --gfn 2 --cosmo inf --norestart
          coordinate file            : coord
          omp threads                :                     1


           -------------------------------------------------
          |                 G F N 2 - x T B                 |
           -------------------------------------------------

        Reference                      10.1021/acs.jctc.8b01176
      * Hamiltonian:
        H0-scaling (s, p, d)           1.850000    2.230000    2.230000
        zeta-weighting                 0.500000
      * Dispersion:
        s8                             2.700000
        a1                             0.520000
        a2                             5.000000
        s9                             5.000000
      * Repulsion:
        kExp                           1.500000    1.000000
        rExp                           1.000000
      * Coulomb:
        alpha                          2.000000
        third order                    shell-resolved
        anisotropic                    true
        a3                             3.000000
        a5                             4.000000
        cn-shift                       1.200000
        cn-exp                         4.000000
        max-rad                        5.000000

      * Solvation model:               COSMO
        Solvent                        inf
        Parameter file                 internal GFN-xTB/COSMO
        Dielectric constant                  Infinity
        Reference state                gsolv [1 M gas/solution]
        Free energy shift                  0.0000E+00 Eh       0.0000E+00 kcal/mol
        Temperature                        2.9815E+02 K
        Density                            1.0000E+00 kg/L
        Solvent mass                       1.8000E+01 g/mol
        vdW Radii scaling                  1.0000E+00
        Surface tension                    1.0000E-05 Eh       1.5569E+01 dyn/cm
        Grid points                               230 per atom

          ...................................................
          :                      SETUP                      :
          :.................................................:
          :  # basis functions                  74          :
          :  # atomic orbitals                  74          :
          :  # shells                           50          :
          :  # electrons                        74          :
          :  max. iterations                   250          :
          :  Hamiltonian                  GFN2-xTB          :
          :  restarted?                      false          :
          :  GBSA solvation                   true          :
          :  PC potential                    false          :
          :  electronic temp.          300.0000000     K    :
          :  accuracy                    1.0000000          :
          :  -> integral cutoff          0.2500000E+02      :
          :  -> integral neglect         0.1000000E-07      :
          :  -> SCF convergence          0.1000000E-05 Eh   :
          :  -> wf. convergence          0.1000000E-03 e    :
          :  Broyden damping             0.4000000          :
          :  net charge                          0          :
          :  unpaired electrons                  0          :
          ...................................................

 iter      E             dE          RMSdq      gap      omega  full diag
   1    -39.4758807 -0.394759E+02  0.259E+00   12.33       0.0  T
   2    -39.5696918 -0.938111E-01  0.143E+00   12.34       1.0  T
   3    -39.5711480 -0.145623E-02  0.729E-01   12.35       1.0  T
   4    -39.5714481 -0.300035E-03  0.815E-02   12.37       1.0  T
   5    -39.5714549 -0.680380E-05  0.406E-02   12.37       1.0  T
   6    -39.5714575 -0.261891E-05  0.191E-03   12.37       8.5  T
   7    -39.5714580 -0.528078E-06  0.982E-04   12.37      16.5  T
   8    -39.5714582 -0.204394E-06  0.432E-04   12.37      37.6  T

   *** convergence criteria satisfied after 8 iterations ***

         #    Occupation            Energy/Eh            Energy/eV
      -------------------------------------------------------------
         1        2.0000           -0.6234037             -16.9637
       ...           ...                  ...                  ...
        31        2.0000           -0.4286916             -11.6653
        32        2.0000           -0.4245974             -11.5539
        33        2.0000           -0.4210949             -11.4586
        34        2.0000           -0.4184609             -11.3869
        35        2.0000           -0.4174066             -11.3582
        36        2.0000           -0.4125501             -11.2261
        37        2.0000           -0.4113098             -11.1923 (HOMO)
        38                          0.0433924               1.1808 (LUMO)
        39                          0.0621071               1.6900
        40                          0.1058625               2.8807
        41                          0.1080664               2.9406
        42                          0.1133550               3.0845
       ...                                ...                  ...
        74                          0.3252548               8.8506
      -------------------------------------------------------------
                  HL-Gap            0.4547021 Eh           12.3731 eV
             Fermi-level           -0.1839587 Eh           -5.0058 eV

 SCC (total)                   0 d,  0 h,  0 min,  0.244 sec
 SCC setup                      ...        0 min,  0.001 sec (  0.504%)
 Dispersion                     ...        0 min,  0.000 sec (  0.103%)
 classical contributions        ...        0 min,  0.000 sec (  0.017%)
 integral evaluation            ...        0 min,  0.002 sec (  0.890%)
 iterations                     ...        0 min,  0.215 sec ( 88.333%)
 molecular gradient             ...        0 min,  0.020 sec (  8.243%)
 printout                       ...        0 min,  0.005 sec (  1.902%)

         :::::::::::::::::::::::::::::::::::::::::::::::::::::
         ::                     SUMMARY                     ::
         :::::::::::::::::::::::::::::::::::::::::::::::::::::
         :: total energy             -38.987273007180 Eh    ::
         :: total w/o Gsasa/hb       -38.979541280617 Eh    ::
         :: gradient norm              0.000367419035 Eh/a0 ::
         :: HOMO-LUMO gap             12.373075117845 eV    ::
         ::.................................................::
         :: SCC energy               -39.571655011598 Eh    ::
         :: -> isotropic ES            0.006816758885 Eh    ::
         :: -> anisotropic ES          0.012441083887 Eh    ::
         :: -> anisotropic XC          0.023728168578 Eh    ::
         :: -> dispersion             -0.024085913526 Eh    ::
         :: -> Gsolv                  -0.007865569274 Eh    ::
         ::    -> Gelec               -0.000133842711 Eh    ::
         ::    -> Gsasa               -0.007731726563 Eh    ::
         ::    -> Ghb                  0.000000000000 Eh    ::
         ::    -> Gshift               0.000000000000 Eh    ::
         :: repulsion energy           0.584382004418 Eh    ::
         :: add. restraining           0.000000000000 Eh    ::
         :: total charge              -0.000000000000 e     ::
         :::::::::::::::::::::::::::::::::::::::::::::::::::::

           -------------------------------------------------
          |                Property Printout                |
           -------------------------------------------------

    * Orbital Energies and Occupations

         #    Occupation            Energy/Eh            Energy/eV
      -------------------------------------------------------------
         1        2.0000           -0.6234037             -16.9637
       ...           ...                  ...                  ...
        25        2.0000           -0.4524126             -12.3108
        26        2.0000           -0.4474103             -12.1747
        27        2.0000           -0.4443208             -12.0906
        28        2.0000           -0.4370765             -11.8935
        29        2.0000           -0.4321634             -11.7598
        30        2.0000           -0.4303072             -11.7093
        31        2.0000           -0.4286916             -11.6653
        32        2.0000           -0.4245974             -11.5539
        33        2.0000           -0.4210949             -11.4586
        34        2.0000           -0.4184609             -11.3869
        35        2.0000           -0.4174066             -11.3582
        36        2.0000           -0.4125501             -11.2261
        37        2.0000           -0.4113098             -11.1923 (HOMO)
        38                          0.0433924               1.1808 (LUMO)
        39                          0.0621071               1.6900
        40                          0.1058625               2.8807
        41                          0.1080664               2.9406
        42                          0.1133550               3.0845
        43                          0.1161314               3.1601
        44                          0.1200640               3.2671
        45                          0.1269879               3.4555
        46                          0.1357644               3.6943
        47                          0.1400643               3.8113
        48                          0.1475997               4.0164
       ...                                ...                  ...
        74                          0.3252548               8.8506
      -------------------------------------------------------------
                  HL-Gap            0.4547021 Eh           12.3731 eV
             Fermi-level           -0.1839587 Eh           -5.0058 eV

     #   Z          covCN         q      C6AA      α(0)
     1   6 c        3.752    -0.103    22.530     6.769
     2   6 c        3.801    -0.053    21.533     6.607
     3   6 c        3.803    -0.060    21.645     6.624
     4   6 c        3.802    -0.059    21.643     6.623
     5   6 c        3.802    -0.059    21.627     6.621
     6   6 c        3.802    -0.059    21.628     6.621
     7   6 c        3.802    -0.059    21.641     6.623
     8   6 c        3.803    -0.059    21.630     6.621
     9   6 c        3.803    -0.059    21.630     6.621
    10   6 c        3.803    -0.060    21.643     6.623
    11   6 c        3.801    -0.053    21.535     6.607
    12   6 c        3.752    -0.103    22.532     6.769
    13   1 h        0.925     0.034     2.536     2.490
    14   1 h        0.925     0.033     2.539     2.492
    15   1 h        0.925     0.034     2.537     2.491
    16   1 h        0.924     0.028     2.609     2.526
    17   1 h        0.924     0.028     2.609     2.526
    18   1 h        0.924     0.029     2.604     2.524
    19   1 h        0.924     0.029     2.598     2.521
    20   1 h        0.924     0.029     2.601     2.522
    21   1 h        0.924     0.031     2.567     2.506
    22   1 h        0.924     0.030     2.591     2.517
    23   1 h        0.924     0.029     2.600     2.521
    24   1 h        0.924     0.030     2.591     2.517
    25   1 h        0.924     0.029     2.600     2.521
    26   1 h        0.924     0.032     2.561     2.502
    27   1 h        0.924     0.029     2.594     2.519
    28   1 h        0.924     0.028     2.612     2.527
    29   1 h        0.924     0.029     2.606     2.524
    30   1 h        0.924     0.029     2.607     2.525
    31   1 h        0.924     0.029     2.607     2.525
    32   1 h        0.924     0.030     2.591     2.517
    33   1 h        0.924     0.030     2.592     2.518
    34   1 h        0.924     0.029     2.608     2.525
    35   1 h        0.924     0.029     2.607     2.525
    36   1 h        0.925     0.034     2.534     2.489
    37   1 h        0.925     0.034     2.537     2.491
    38   1 h        0.925     0.034     2.534     2.489

 Mol. C6AA /au·bohr⁶  :       9530.283501
 Mol. C8AA /au·bohr⁸  :     198699.995640
 Mol. α(0) /au        :        145.080963


Wiberg/Mayer (AO) data.
largest (>0.10) Wiberg bond orders for each atom

 ---------------------------------------------------------------------------
     #   Z sym  total        # sym  WBO       # sym  WBO       # sym  WBO
 ---------------------------------------------------------------------------
     1   6 c    3.997 --     2 c    1.019    15 h    0.988    13 h    0.988
                            14 h    0.987
     2   6 c    3.998 --     1 c    1.019     3 c    1.008    17 h    0.979
                            16 h    0.979
     3   6 c    3.997 --     2 c    1.008     4 c    1.007    19 h    0.978
                            18 h    0.977
     4   6 c    3.997 --     5 c    1.008     3 c    1.007    20 h    0.977
                            21 h    0.976
     5   6 c    3.997 --     4 c    1.008     6 c    1.006    22 h    0.977
                            23 h    0.977
     6   6 c    3.997 --     7 c    1.008     5 c    1.006    24 h    0.977
                            25 h    0.977
     7   6 c    3.997 --     6 c    1.008     8 c    1.007    27 h    0.977
                            26 h    0.976
     8   6 c    3.997 --     9 c    1.007     7 c    1.007    29 h    0.978
                            28 h    0.977
     9   6 c    3.997 --    10 c    1.007     8 c    1.007    30 h    0.978
                            31 h    0.978
    10   6 c    3.997 --    11 c    1.008     9 c    1.007    33 h    0.978
                            32 h    0.978
    11   6 c    3.998 --    12 c    1.019    10 c    1.008    35 h    0.979
                            34 h    0.979
    12   6 c    3.997 --    11 c    1.019    38 h    0.988    36 h    0.988
                            37 h    0.987
    13   1 h    0.999 --     1 c    0.988
    14   1 h    0.999 --     1 c    0.987
    15   1 h    0.999 --     1 c    0.988
    16   1 h    0.999 --     2 c    0.979
    17   1 h    0.999 --     2 c    0.979
    18   1 h    0.999 --     3 c    0.977
    19   1 h    0.999 --     3 c    0.978
    20   1 h    0.999 --     4 c    0.977
    21   1 h    0.999 --     4 c    0.976
    22   1 h    0.999 --     5 c    0.977
    23   1 h    0.999 --     5 c    0.977
    24   1 h    0.999 --     6 c    0.977
    25   1 h    0.999 --     6 c    0.977
    26   1 h    0.999 --     7 c    0.976
    27   1 h    0.999 --     7 c    0.977
    28   1 h    0.999 --     8 c    0.977
    29   1 h    0.999 --     8 c    0.978
    30   1 h    0.999 --     9 c    0.978
    31   1 h    0.999 --     9 c    0.978
    32   1 h    0.999 --    10 c    0.978
    33   1 h    0.999 --    10 c    0.978
    34   1 h    0.999 --    11 c    0.979
    35   1 h    0.999 --    11 c    0.979
    36   1 h    0.999 --    12 c    0.988
    37   1 h    0.999 --    12 c    0.987
    38   1 h    0.999 --    12 c    0.988
 ---------------------------------------------------------------------------

Topologies differ in total number of bonds
Writing topology from bond orders to xtbtopo.mol

molecular dipole:
                 x           y           z       tot (Debye)
 q only:       -0.001       0.005      -0.004
   full:       -0.000       0.002      -0.001       0.005
molecular quadrupole (traceless):
                xx          xy          yy          xz          yz          zz
 q only:        0.809       0.196      -0.296       0.217      -0.140      -0.513
  q+dip:       -2.716      -0.553       0.783      -0.673       0.714       1.934
   full:       -1.027      -0.203       0.257      -0.259       0.309       0.770


           -------------------------------------------------
          | TOTAL ENERGY              -38.987273007180 Eh   |
          | GRADIENT NORM               0.000367419035 Eh/α |
          | HOMO-LUMO GAP              12.373075117845 eV   |
           -------------------------------------------------

------------------------------------------------------------------------
 * finished run on 2026/08/29 at 13:17:55.782     
------------------------------------------------------------------------
 total:
 * wall-time:     0 d,  0 h,  0 min,  0.253 sec
 *  cpu-time:     0 d,  0 h,  0 min,  0.252 sec
 * ratio c/w:     0.998 speedup
 SCF:
 * wall-time:     0 d,  0 h,  0 min,  0.244 sec
 *  cpu-time:     0 d,  0 h,  0 min,  0.244 sec
 * ratio c/w:     0.998 speedup

