38
 energy: -38.979410016353 gnorm: 0.000100848315 xtb: 6.7.1 (edcfbbe)
C            6.35397639838412        1.11143338420852       -0.38878187442321
C            4.91734852662087        0.76888797982522       -0.76355319869807
C            4.18857874476593        0.05253448691618        0.37086010751983
C            2.74832442431305       -0.29375368907126        0.00102500452221
C            2.02084043224595       -0.99682655321173        1.14510499225912
C            0.61565633003619       -1.46994689290154        0.77174516128277
C           -0.35968246771836       -0.32505379153087        0.50682362568554
C           -1.77833020135074       -0.83203815079534        0.25855980895224
C           -2.75385592849093        0.30859644261211       -0.02138659716785
C           -4.17298542019477       -0.19604945169920       -0.26971432807535
C           -5.14940543033981        0.94389719857648       -0.54913171211877
C           -6.56332224985451        0.43231029894305       -0.79592595011633
H            6.37562791772801        1.76231373528665        0.48274482394232
H            6.85424387893055        1.62021506092644       -1.20965214263967
H            6.91241051316090        0.20782252742468       -0.15363795573256
H            4.37961037632385        1.68618554671898       -1.01471824490878
H            4.91597619655865        0.13205650293691       -1.65130469008600
H            4.72821612269974       -0.86366148887247        0.62310219883034
H            4.18950277530420        0.69006710826525        1.25840283545695
H            2.74789902123679       -0.94250803372973       -0.87835598609502
H            2.22084405457098        0.62450228896980       -0.26274119143438
H            1.95781286101658       -0.32169643357328        2.00192769397945
H            2.61036768149117       -1.86429778499553        1.45318826312625
H            0.67340235714640       -2.10725322711373       -0.11390757805393
H            0.22419823011234       -2.07978097207808        1.59013895835723
H           -0.03140512737669        0.24534889939458       -0.36363677811502
H           -0.36361955101254        0.35041800829206        1.36574782868668
H           -2.12045558129632       -1.39320472537814        1.13159880224173
H           -1.77205719484467       -1.51837796166388       -0.59172165441235
H           -2.75868500245420        0.99559188819431        0.82843540412906
H           -2.41235618585711        0.86899173395403       -0.89519637561493
H           -4.16809507659929       -0.88235940908008       -1.12002479384781
H           -4.51460215868032       -0.75657800192974        0.60387632798855
H           -5.15498230173031        1.62999412529349        0.30107023949802
H           -4.80854970831744        1.50418806648581       -1.42291914480591
H           -6.92833824317801       -0.11279460683392        0.07199413107477
H           -7.24214259240523        1.25906234953824       -0.99240912308910
H           -6.58196642094402       -0.23823645830329       -1.65248112127497
