      -----------------------------------------------------------      
     |                   =====================                   |     
     |                           x T B                           |     
     |                   =====================                   |     
     |                         S. Grimme                         |     
     |          Mulliken Center for Theoretical Chemistry        |     
     |                    University of Bonn                     |     
      -----------------------------------------------------------      

   * xtb version 6.7.1 (edcfbbe) compiled by 'albert@albert-system' on 2024-07-22

   xtb is free software: you can redistribute it and/or modify it under
   the terms of the GNU Lesser General Public License as published by
   the Free Software Foundation, either version 3 of the License, or
   (at your option) any later version.
   
   xtb is distributed in the hope that it will be useful,
   but WITHOUT ANY WARRANTY; without even the implied warranty of
   MERCHANTABILITY or FITNESS FOR A PARTICULAR PURPOSE.  See the
   GNU Lesser General Public License for more details.
   
   Cite this work as:
   * C. Bannwarth, E. Caldeweyher, S. Ehlert, A. Hansen, P. Pracht,
     J. Seibert, S. Spicher, S. Grimme, WIREs Comput. Mol. Sci., 2020, 11,
     e01493. DOI: 10.1002/wcms.1493
   
   for GFN2-xTB:
   * C. Bannwarth, S. Ehlert and S. Grimme., J. Chem. Theory Comput., 2019,
     15, 1652-1671. DOI: 10.1021/acs.jctc.8b01176
   for GFN1-xTB:
   * S. Grimme, C. Bannwarth, P. Shushkov, J. Chem. Theory Comput., 2017,
     13, 1989-2009. DOI: 10.1021/acs.jctc.7b00118
   for GFN0-xTB:
   * P. Pracht, E. Caldeweyher, S. Ehlert, S. Grimme, ChemRxiv, 2019, preprint.
     DOI: 10.26434/chemrxiv.8326202.v1
   for GFN-FF:
   * S. Spicher and S. Grimme, Angew. Chem. Int. Ed., 2020, 59, 15665-15673.
     DOI: 10.1002/anie.202004239
   
   for ALPB and GBSA implicit solvation:
   * S. Ehlert, M. Stahn, S. Spicher, S. Grimme, J. Chem. Theory Comput.,
     2021, 17, 4250-4261. DOI: 10.1021/acs.jctc.1c00471
   
   for ddCOSMO and CPCM-X implicit solvation:
   * M. Stahn, S. Ehlert, S. Grimme, J. Phys. Chem. A,
     2023, XX, XXXX-XXXX. DOI: 10.1021/acs.jpca.3c04382
   
   for DFT-D4:
   * E. Caldeweyher, C. Bannwarth and S. Grimme, J. Chem. Phys., 2017,
     147, 034112. DOI: 10.1063/1.4993215
   * E. Caldeweyher, S. Ehlert, A. Hansen, H. Neugebauer, S. Spicher,
     C. Bannwarth and S. Grimme, J. Chem. Phys., 2019, 150, 154122.
     DOI: 10.1063/1.5090222
   * E. Caldeweyher, J.-M. Mewes, S. Ehlert and S. Grimme, Phys. Chem. Chem. Phys.
     2020, 22, 8499-8512. DOI: 10.1039/D0CP00502A
   
   for sTDA-xTB:
   * S. Grimme and C. Bannwarth, J. Chem. Phys., 2016, 145, 054103.
     DOI: 10.1063/1.4959605
   
   in the mass-spec context:
   * V. Asgeirsson, C. Bauer and S. Grimme, Chem. Sci., 2017, 8, 4879.
     DOI: 10.1039/c7sc00601b
   * J. Koopman and S. Grimme, ACS Omega 2019, 4, 12, 15120-15133.
     DOI: 10.1021/acsomega.9b02011
   
   for metadynamics refer to:
   * S. Grimme, J. Chem. Theory Comput., 2019, 155, 2847-2862
     DOI: 10.1021/acs.jctc.9b00143
   
   for SPH calculations refer to:
   * S. Spicher and S. Grimme, J. Chem. Theory Comput., 2021, 17, 1701-1714
     DOI: 10.1021/acs.jctc.0c01306
   
   for ONIOM refer to:
   * C. Plett, A. Katbashev, S. Ehlert, S. Grimme, M. Bursch,
     Phys. Chem. Chem. Phys., 2023, 25, 17860-17868. DOI: 10.1039/D3CP02178E
   
   for DIPRO refer to:
   * J. Kohn, N. Gildemeister, S. Grimme, D. Fazzi, A. Hansen,
     J. Chem. Phys., 2023, just accepted.
   
   for PTB refer to:
   * S. Grimme, M. Mueller, A. Hansen, J. Chem. Phys., 2023, 158, 124111.
     DOI: 10.1063/5.0137838
   
   with help from (in alphabetical order)
   P. Atkinson, C. Bannwarth, F. Bohle, G. Brandenburg, E. Caldeweyher
   M. Checinski, S. Dohm, S. Ehlert, S. Ehrlich, I. Gerasimov, C. Hölzer
   A. Katbashev, J. Kohn, J. Koopman, C. Lavigne, S. Lehtola, F. März, M. Müller,
   F. Musil, H. Neugebauer, J. Pisarek, C. Plett, P. Pracht, F. Pultar,
   J. Seibert, P. Shushkov, S. Spicher, M. Stahn, M. Steiner, T. Strunk,
   J. Stückrath, T. Rose, and J. Unsleber
   
 * started run on 2026/08/29 at 13:18:02.633     
   ID    Z sym.   atoms
    1    6 c      1, 3-6
    2    7 n      2
    3    8 o      7
    4    1 h      8-16

           -------------------------------------------------
          |                Calculation Setup                |
           -------------------------------------------------

          program call               : xtb coord --gfn 2 --cosmo inf --norestart
          coordinate file            : coord
          omp threads                :                     1


           -------------------------------------------------
          |                 G F N 2 - x T B                 |
           -------------------------------------------------

        Reference                      10.1021/acs.jctc.8b01176
      * Hamiltonian:
        H0-scaling (s, p, d)           1.850000    2.230000    2.230000
        zeta-weighting                 0.500000
      * Dispersion:
        s8                             2.700000
        a1                             0.520000
        a2                             5.000000
        s9                             5.000000
      * Repulsion:
        kExp                           1.500000    1.000000
        rExp                           1.000000
      * Coulomb:
        alpha                          2.000000
        third order                    shell-resolved
        anisotropic                    true
        a3                             3.000000
        a5                             4.000000
        cn-shift                       1.200000
        cn-exp                         4.000000
        max-rad                        5.000000

      * Solvation model:               COSMO
        Solvent                        inf
        Parameter file                 internal GFN-xTB/COSMO
        Dielectric constant                  Infinity
        Reference state                gsolv [1 M gas/solution]
        Free energy shift                  0.0000E+00 Eh       0.0000E+00 kcal/mol
        Temperature                        2.9815E+02 K
        Density                            1.0000E+00 kg/L
        Solvent mass                       1.8000E+01 g/mol
        vdW Radii scaling                  1.0000E+00
        Surface tension                    1.0000E-05 Eh       1.5569E+01 dyn/cm
        Grid points                               230 per atom

          ...................................................
          :                      SETUP                      :
          :.................................................:
          :  # basis functions                  37          :
          :  # atomic orbitals                  37          :
          :  # shells                           23          :
          :  # electrons                        40          :
          :  max. iterations                   250          :
          :  Hamiltonian                  GFN2-xTB          :
          :  restarted?                      false          :
          :  GBSA solvation                   true          :
          :  PC potential                    false          :
          :  electronic temp.          300.0000000     K    :
          :  accuracy                    1.0000000          :
          :  -> integral cutoff          0.2500000E+02      :
          :  -> integral neglect         0.1000000E-07      :
          :  -> SCF convergence          0.1000000E-05 Eh   :
          :  -> wf. convergence          0.1000000E-03 e    :
          :  Broyden damping             0.4000000          :
          :  net charge                          0          :
          :  unpaired electrons                  0          :
          ...................................................

 iter      E             dE          RMSdq      gap      omega  full diag
   1    -22.5182299 -0.225182E+02  0.381E+00    4.82       0.0  T
   2    -22.6050224 -0.867925E-01  0.221E+00    5.12       1.0  T
   3    -22.6034849  0.153746E-02  0.107E+00    4.97       1.0  T
   4    -22.6040773 -0.592418E-03  0.128E-01    5.01       1.0  T
   5    -22.6037100  0.367311E-03  0.671E-02    4.99       1.0  T
   6    -22.6034533  0.256710E-03  0.217E-02    5.00       1.2  T
   7    -22.6033978  0.555550E-04  0.541E-03    4.99       4.6  T
   8    -22.6033881  0.962965E-05  0.346E-03    4.99       7.2  T
   9    -22.6033777  0.104587E-04  0.599E-04    4.99      41.7  T
  10    -22.6033733  0.438737E-05  0.257E-04    4.99      97.4  T
  11    -22.6033709  0.234792E-05  0.779E-05    4.99     320.9  T
  12    -22.6033707  0.290808E-06  0.355E-05    4.99     705.0  T
  13    -22.6033708 -0.188936E-06  0.711E-06    4.99    3514.2  T

   *** convergence criteria satisfied after 13 iterations ***

         #    Occupation            Energy/Eh            Energy/eV
      -------------------------------------------------------------
         1        2.0000           -0.7032623             -19.1367
       ...           ...                  ...                  ...
        14        2.0000           -0.4796400             -13.0517
        15        2.0000           -0.4777673             -13.0007
        16        2.0000           -0.4704778             -12.8024
        17        2.0000           -0.4601451             -12.5212
        18        2.0000           -0.4414784             -12.0132
        19        2.0000           -0.3981921             -10.8354
        20        2.0000           -0.3871329             -10.5344 (HOMO)
        21                         -0.2037472              -5.5442 (LUMO)
        22                          0.0061776               0.1681
        23                          0.0475735               1.2945
        24                          0.0851908               2.3182
        25                          0.1063494               2.8939
       ...                                ...                  ...
        37                          0.6644822              18.0815
      -------------------------------------------------------------
                  HL-Gap            0.1833857 Eh            4.9902 eV
             Fermi-level           -0.2954400 Eh           -8.0393 eV

 SCC (total)                   0 d,  0 h,  0 min,  0.143 sec
 SCC setup                      ...        0 min,  0.001 sec (  0.356%)
 Dispersion                     ...        0 min,  0.000 sec (  0.036%)
 classical contributions        ...        0 min,  0.000 sec (  0.008%)
 integral evaluation            ...        0 min,  0.001 sec (  0.579%)
 iterations                     ...        0 min,  0.132 sec ( 92.254%)
 molecular gradient             ...        0 min,  0.007 sec (  5.200%)
 printout                       ...        0 min,  0.002 sec (  1.554%)

         :::::::::::::::::::::::::::::::::::::::::::::::::::::
         ::                     SUMMARY                     ::
         :::::::::::::::::::::::::::::::::::::::::::::::::::::
         :: total energy             -22.328237324153 Eh    ::
         :: total w/o Gsasa/hb       -22.322914095613 Eh    ::
         :: gradient norm              0.035155692522 Eh/a0 ::
         :: HOMO-LUMO gap              4.990179160767 eV    ::
         ::.................................................::
         :: SCC energy               -22.603346246520 Eh    ::
         :: -> isotropic ES            0.052326311903 Eh    ::
         :: -> anisotropic ES          0.001260232771 Eh    ::
         :: -> anisotropic XC          0.008491538220 Eh    ::
         :: -> dispersion             -0.010058104844 Eh    ::
         :: -> Gsolv                  -0.017440997418 Eh    ::
         ::    -> Gelec               -0.012117768878 Eh    ::
         ::    -> Gsasa               -0.005323228540 Eh    ::
         ::    -> Ghb                  0.000000000000 Eh    ::
         ::    -> Gshift               0.000000000000 Eh    ::
         :: repulsion energy           0.275108922367 Eh    ::
         :: add. restraining           0.000000000000 Eh    ::
         :: total charge               0.000000000000 e     ::
         :::::::::::::::::::::::::::::::::::::::::::::::::::::

           -------------------------------------------------
          |                Property Printout                |
           -------------------------------------------------

    * Orbital Energies and Occupations

         #    Occupation            Energy/Eh            Energy/eV
      -------------------------------------------------------------
         1        2.0000           -0.7032623             -19.1367
       ...           ...                  ...                  ...
         8        2.0000           -0.5599100             -15.2359
         9        2.0000           -0.5434570             -14.7882
        10        2.0000           -0.5277014             -14.3595
        11        2.0000           -0.5114152             -13.9163
        12        2.0000           -0.5079920             -13.8232
        13        2.0000           -0.4961950             -13.5022
        14        2.0000           -0.4796400             -13.0517
        15        2.0000           -0.4777673             -13.0007
        16        2.0000           -0.4704778             -12.8024
        17        2.0000           -0.4601451             -12.5212
        18        2.0000           -0.4414784             -12.0132
        19        2.0000           -0.3981921             -10.8354
        20        2.0000           -0.3871329             -10.5344 (HOMO)
        21                         -0.2037472              -5.5442 (LUMO)
        22                          0.0061776               0.1681
        23                          0.0475735               1.2945
        24                          0.0851908               2.3182
        25                          0.1063494               2.8939
        26                          0.1287826               3.5044
        27                          0.1344494               3.6586
        28                          0.1521008               4.1389
        29                          0.1752807               4.7696
        30                          0.1917982               5.2191
        31                          0.2058442               5.6013
       ...                                ...                  ...
        37                          0.6644822              18.0815
      -------------------------------------------------------------
                  HL-Gap            0.1833857 Eh            4.9902 eV
             Fermi-level           -0.2954400 Eh           -8.0393 eV

     #   Z          covCN         q      C6AA      α(0)
     1   6 c        3.692    -0.048    21.626     6.654
     2   7 n        2.762    -0.087    22.935     7.113
     3   6 c        3.780    -0.008    20.739     6.488
     4   6 c        3.829    -0.068    21.782     6.641
     5   6 c        3.834    -0.093    22.248     6.711
     6   6 c        2.796     0.269    22.461     7.764
     7   8 o        0.857    -0.519    24.218     6.598
     8   1 h        0.924     0.065     2.136     2.286
     9   1 h        0.925     0.061     2.187     2.313
    10   1 h        0.924     0.062     2.178     2.308
    11   1 h        0.923     0.057     2.233     2.337
    12   1 h        0.924     0.066     2.128     2.281
    13   1 h        0.925     0.063     2.159     2.298
    14   1 h        0.924     0.056     2.241     2.341
    15   1 h        0.925     0.058     2.222     2.331
    16   1 h        0.924     0.065     2.140     2.288

 Mol. C6AA /au·bohr⁶  :       2136.870815
 Mol. C8AA /au·bohr⁸  :      46584.032941
 Mol. α(0) /au        :         68.750023


Wiberg/Mayer (AO) data.
largest (>0.10) Wiberg bond orders for each atom

 ---------------------------------------------------------------------------
     #   Z sym  total        # sym  WBO       # sym  WBO       # sym  WBO
 ---------------------------------------------------------------------------
     1   6 c    3.967 --     2 n    1.002     9 h    0.979     8 h    0.974
                            10 h    0.973
     2   7 n    3.518 --     6 c    1.277     1 c    1.002     3 c    0.986
                             7 o    0.196
     3   6 c    3.966 --     4 c    1.001     2 n    0.986    12 h    0.970
                            11 h    0.965
     4   6 c    3.993 --     5 c    1.008     3 c    1.001    14 h    0.980
                            13 h    0.978
     5   6 c    3.996 --     4 c    1.008    15 h    0.969     6 c    0.963
                            16 h    0.956
     6   6 c    3.946 --     7 o    1.628     2 n    1.277     5 c    0.963
     7   8 o    1.947 --     6 c    1.628     2 n    0.196
     8   1 h    0.996 --     1 c    0.974
     9   1 h    0.996 --     1 c    0.979
    10   1 h    0.996 --     1 c    0.973
    11   1 h    0.997 --     3 c    0.965
    12   1 h    0.996 --     3 c    0.970
    13   1 h    0.996 --     4 c    0.978
    14   1 h    0.997 --     4 c    0.980
    15   1 h    0.997 --     5 c    0.969
    16   1 h    0.996 --     5 c    0.956
 ---------------------------------------------------------------------------

Topologies differ in total number of bonds
Writing topology from bond orders to xtbtopo.mol

molecular dipole:
                 x           y           z       tot (Debye)
 q only:        0.266      -2.042       0.389
   full:        0.259      -2.114       0.358       5.488
molecular quadrupole (traceless):
                xx          xy          yy          xz          yz          zz
 q only:        7.911       1.624      -9.537      -0.064       2.257       1.626
  q+dip:        7.636       0.914     -11.518       0.211       3.367       3.882
   full:        7.812       1.158     -11.473       0.046       3.188       3.661


           -------------------------------------------------
          | TOTAL ENERGY              -22.328237324153 Eh   |
          | GRADIENT NORM               0.035155692522 Eh/α |
          | HOMO-LUMO GAP               4.990179160767 eV   |
           -------------------------------------------------

------------------------------------------------------------------------
 * finished run on 2026/08/29 at 13:18:02.784     
------------------------------------------------------------------------
 total:
 * wall-time:     0 d,  0 h,  0 min,  0.151 sec
 *  cpu-time:     0 d,  0 h,  0 min,  0.150 sec
 * ratio c/w:     0.992 speedup
 SCF:
 * wall-time:     0 d,  0 h,  0 min,  0.143 sec
 *  cpu-time:     0 d,  0 h,  0 min,  0.142 sec
 * ratio c/w:     0.991 speedup

