16
 energy: -22.313678280960 gnorm: 0.000275503887 xtb: 6.7.1 (edcfbbe)
C            2.04797017332858        0.58799202833616       -0.07033243372294
N            0.65151950766502        0.26051102110884       -0.02643430513720
C            0.19900562536127       -1.09851252865766        0.14697826513892
C           -1.30079641793733       -0.94447409205725        0.42393137101483
C           -1.65362972620932        0.38694354356563       -0.23703095471039
C           -0.33571615852096        1.14908837545846       -0.26888042610705
O           -0.18009745384540        2.33036600006666       -0.48242848220332
H            2.53500155694910        0.31918135991226        0.87032439805756
H            2.12892424339456        1.66252499947271       -0.22781374429194
H            2.54564796399141        0.06271718516479       -0.89046969517265
H            0.38465324563025       -1.68233959439245       -0.76542853371857
H            0.73315856434162       -1.57645239337427        0.97321521753827
H           -1.87742318302812       -1.77852110072628        0.02923214523108
H           -1.47429910828291       -0.88379280517963        1.49865897533887
H           -2.41681918772217        0.95111113666118        0.29465833422110
H           -1.98709964511460        0.25365686464085       -1.26818013147754
