26
 energy: -39.379139540047 gnorm: 0.000156615556 xtb: 6.7.1 (edcfbbe)
C            3.47451668537625       -0.34333979693021        0.20672053312834
C            2.68508527309456       -1.46464640705618        0.02744336169612
C            1.29675273401610       -1.35187786757511       -0.05785117764733
C            0.44977741556057       -2.48485765012947       -0.24246668681993
C           -0.89413600595949       -2.35205663874366       -0.32242440262517
C           -1.51957491949605       -1.07357803202448       -0.22541206244220
C           -2.90346047839144       -0.91240542549577       -0.30505395821306
C           -3.47451650672450        0.34333980458061       -0.20672066826819
C           -2.68508516459692        1.46464632683402       -0.02744348053952
C           -1.29675276122960        1.35187785828104        0.05785121512665
C           -0.44977762891796        2.48485754310095        0.24246682231956
C            0.89413582052391        2.35205672855158        0.32242457749759
C            1.51957487733410        1.07357805067647        0.22541210486749
C            2.90346063230153        0.91240547937927        0.30505391524310
C            0.70297347730524       -0.06946543031703        0.04182432482754
C           -0.70297353798776        0.06946544734089       -0.04182426136385
H            4.54803551527522       -0.44942125515712        0.27059078249523
H            3.14035351527692       -2.44196349758553       -0.04832457400015
H            0.91371823308394       -3.45853373690260       -0.31722284667166
H           -1.52701927173537       -3.21734842130838       -0.46243738694733
H           -3.52849037542199       -1.78297126094095       -0.44509546667229
H           -4.54803541800422        0.44942125349140       -0.27059108199146
H           -3.14035339490011        2.44196356064675        0.04832433587377
H           -0.91371832904511        3.45853370263273        0.31722299703232
H            1.52701915093525        3.21734842926252        0.46243763063309
H            3.52849046232594        1.78297123539026        0.44509545346235
