21
RDKit ETKDGv3/MMFF94s selected conformer
C   2.409203068028 -1.165568533204 -0.162765065376
C   1.400153965784 -0.049997544782 -0.082078584429
C   1.866215361592  1.274859685518 -0.082653844508
C   0.976150287984  2.341195035953 -0.009842591606
C  -0.392721913734  2.098701725839  0.064596620195
C  -0.891975191478  0.788157538059  0.067378264457
C  -2.276153859747  0.559481079581  0.142974326723
C  -2.790644031066 -0.735957694496  0.146933348842
C  -1.926561571301 -1.820463312555  0.075263350694
C  -0.547625572416 -1.609317864522 -0.000378950267
C   0.004215015979 -0.308358813942 -0.006387913609
H   3.433291891918 -0.780368828250 -0.214359054605
H   2.240565911457 -1.766836920805 -1.061920557921
H   2.344027316155 -1.802513499673  0.725207055243
H   2.932369787111  1.483452535125 -0.140237417846
H   1.348231670960  3.362181897420 -0.011025508772
H  -1.071846991768  2.946533919328  0.120824321301
H  -2.968687781985  1.396554751918  0.199771041834
H  -3.863830663041 -0.895275484443  0.205908567564
H  -2.320939567997 -2.833108621252  0.077912490001
H   0.096562867563 -2.483351050816 -0.055119897915
