21
 energy: -28.643942322683 gnorm: 0.000099962380 xtb: 6.7.1 (edcfbbe)
C            2.38218647788329       -1.17305439659862       -0.16134833529263
C            1.40243158539069       -0.04066202709230       -0.08202697300224
C            1.84662340575094        1.25663143739382       -0.08188028484882
C            0.95732123461380        2.33817168815113       -0.00881176805066
C           -0.38739933986597        2.11722068238528        0.06465714109862
C           -0.89465837498774        0.80117000148598        0.06778854425333
C           -2.28088255708969        0.55145133723206        0.14308748596594
C           -2.76637902554569       -0.72519600638169        0.14574386865821
C           -1.88099367748797       -1.80999692805491        0.07283508390274
C           -0.53187117370242       -1.60095450983875       -0.00112642781187
C            0.00593815392041       -0.29558809418413       -0.00623858604438
H            3.39899087404329       -0.79129531127879       -0.21260139846226
H            2.19835491736187       -1.78064237419843       -1.04684431249141
H            2.30033772186617       -1.81579141143987        0.71457949732123
H            2.90739270130521        1.45763698837633       -0.13930273741152
H            1.34910715557184        3.34502078321041       -0.01142293352312
H           -1.08256749728033        2.94273777336699        0.12137796339313
H           -2.95376074895077        1.39579440241791        0.19889360190841
H           -3.82960509560057       -0.90781736625227        0.20367502807966
H           -2.27433062726152       -2.81644791664511        0.07554147503847
H            0.13376389006318       -2.44838875205405       -0.05657593268083
