16
RDKit ETKDGv3/MMFF94s selected conformer
C   2.066207450939  0.587379714315 -0.048512755483
N   0.661784602635  0.256837095290 -0.017090575040
C   0.192146689458 -1.096089125643  0.122426697315
C  -1.279529395473 -0.920738059591  0.442988500599
C  -1.657064996048  0.373436010959 -0.268401304675
C  -0.364744967519  1.153340525465 -0.266758610209
O  -0.259494334808  2.346413572184 -0.495555326458
H   2.531287916547  0.245372085770  0.879802979368
H   2.206676026515  1.666382366786 -0.152162240447
H   2.527385891791  0.079801759819 -0.900108666955
H   0.343868147859 -1.616199953474 -0.828979225966
H   0.730589085866 -1.613226595282  0.921588296184
H  -1.887992487135 -1.773718265528  0.129971422650
H  -1.410708044709 -0.792662964535  1.524880715734
H  -2.444515991049  0.915242296214  0.260694968819
H  -1.955895594868  0.188429537251 -1.304784875437
