38
RDKit ETKDGv3/MMFF94s selected conformer
C   6.343076223267  1.108339226737 -0.386992013688
C   4.909683684924  0.768017984055 -0.762561309946
C   4.186371124567  0.053168447331  0.378597860660
C   2.744197615133 -0.288075706334 -0.003585575144
C   2.021504383170 -1.000011404762  1.142130137459
C   0.610192669137 -1.467485099185  0.774949204259
C  -0.360354428814 -0.316386567564  0.501537534428
C  -1.778909025893 -0.835113463363  0.254453009253
C  -2.750739861049  0.313075923109 -0.023199987936
C  -4.168527369960 -0.205264985235 -0.269655683935
C  -5.139494964323  0.942083696782 -0.547182521568
C  -6.550167485195  0.430998213675 -0.792740880150
H   6.373785122957  1.768730516236  0.485519021563
H   6.841389687121  1.618801424035 -1.217065801022
H   6.912916137967  0.203292670029 -0.153523515084
H   4.377152037491  1.690623878483 -1.021231479427
H   4.913130510749  0.133704284219 -1.656614744781
H   4.726137446057 -0.866293621147  0.636085337599
H   4.188647322769  0.690168076772  1.271530240885
H   2.742361359484 -0.928264268896 -0.893966906749
H   2.215828528415  0.635432162502 -0.265144316585
H   1.974422280569 -0.340565855642  2.017294467811
H   2.604907636989 -1.879756382127  1.441207158119
H   0.657423422693 -2.128094480460 -0.099328482521
H   0.224149676095 -2.071129595219  1.605817172654
H  -0.030641215155  0.253353076137 -0.374319378759
H  -0.364928876080  0.371697250738  1.355429249192
H  -2.120855041090 -1.401642047048  1.129152601160
H  -1.773740733901 -1.526388719983 -0.597097000053
H  -2.755173466988  1.004490916639  0.828225754312
H  -2.409598395036  0.879692390054 -0.898170110933
H  -4.164150622512 -0.896905833909 -1.120939573331
H  -4.509906150271 -0.771968841908  0.605202122475
H  -5.150776052511  1.634372944137  0.302707438063
H  -4.805025320762  1.509427087592 -1.423513864498
H  -6.927131648187 -0.114179766369  0.078473520106
H  -7.227693292686  1.267865312477 -0.989013943177
H  -6.579462919140 -0.239808842587 -1.657318973888
